La   Li   Ti   O                        
   1.00000000000000     
    10.9481601714999996    0.0000000000000000    0.0000000000000000
    -2.7370406741000002    4.7406920522000000    0.0000000000000000
     0.0000000000000000    0.0000000000000000   13.4090003966999998
   La   Li   Ti   O 
     7     3    12    36
Direct
  0.3346535420205859  0.3383859085438008  0.5946066622936795
  0.8332244310094759  0.3409789235536771  0.5903143635759319
  0.1778835667005215  0.6883665483523591  0.9169809859484254
  0.6702569776254896  0.6715828276356797  0.9228493896233249
  0.1686482651842306  0.6744733147812391  0.4165775333083458
  0.6641583010147138  0.6690014972865848  0.4159891290724202
  0.0096417575168435  0.0105214200018889  0.2449716692158751
  0.5149194834328527  0.0219978444653110  0.8029258165690456
  0.3843426832303840  0.3444081138567063  0.1309443387442192
  0.9025495108545538  0.4681900336715178  0.0678212447097306
  0.0085988643855148  0.0262582222782073  0.9986951185620393
  0.5126197151636871  0.0133858201488639  0.0144706416180978
  0.0008562662047678  0.0086416917390914  0.5058231380697993
  0.5004963683199459  0.0032075669713621  0.5052509384089082
  0.3446272479932014  0.3524909342867856  0.3299926816566959
  0.8255739173450871  0.3340490973703960  0.3260192448414113
  0.3412375890744663  0.3445080659033720  0.8386610347983499
  0.8396061166216352  0.3445449116590530  0.8366882121889457
  0.1678887966517209  0.6748446231843561  0.6767763874476227
  0.6692348594268950  0.6744798441451701  0.6780505226117862
  0.1854412855111712  0.6916226181616598  0.1637648491641915
  0.6744681937531064  0.6750850004229119  0.1660798114746263
  0.2687266414452981  0.0162499830305884  0.2471421767974979
  0.7818654089214777  0.9913578629038109  0.2587200192375921
  0.2236723540055676  0.0012415325249435  0.7517183746402543
  0.7139864275834478  0.9945231520473242  0.7554863636674762
  0.0027891357085011  0.5601001615462476  0.2579227397110887
  0.5039149428767709  0.5558979365811707  0.2545694714711934
  0.9949403909100395  0.4519797304185460  0.7483072706813041
  0.4966755778181667  0.4319092025834846  0.7460999828031629
  0.2207167722753897  0.4637245654071888  0.2585228693630633
  0.7241404159644190  0.4640438544105984  0.2586125361797531
  0.2775434296714556  0.5599942806201295  0.7508264390589316
  0.7722259202619062  0.5464173907432509  0.7512234336867057
  0.1168799468063607  0.3486846667170605  0.5774690766526515
  0.6145903954608101  0.3517581140675156  0.5767810436313451
  0.0499797193895182  0.3325119191501942  0.0879428853582714
  0.5550662993432550  0.3498199756402088  0.0805445098029283
  0.3281440629762106  0.8884488023853656  0.5809495953990609
  0.8271959549742359  0.8905127413214000  0.5801454573073602
  0.3273108136371825  0.7688555647725313  0.0727580023106541
  0.8366904186932614  0.7645395267017112  0.0886304339855484
  0.0589236470185850  0.7724022398909980  0.5751179540894652
  0.5578524720685020  0.7793639449255434  0.5818096238680692
  0.1042518231181064  0.8762842733610402  0.0857859160030965
  0.6187943861492003  0.8855769900383619  0.0778465978031440
  0.4532276586630274  0.6866901794590585  0.9092148854731249
  0.9445532018191967  0.6565789783083645  0.9250745162970140
  0.3855181718419503  0.6519090692692739  0.4283339116352615
  0.8844212628551843  0.6658914399681997  0.4201023199450167
  0.1720142264811499  0.2301096399359535  0.9219004588002917
  0.6638321138169236  0.2258721964152384  0.9162771625906331
  0.1579500238294915  0.1061821204868222  0.4128027331735197
  0.6718994632345691  0.1188375468820076  0.4254208860374722
  0.3956710158203555  0.1181342002852409  0.9123427196289869
  0.8888687790031495  0.1124285965818501  0.9212375045697886
  0.4332251105401862  0.2198534170218706  0.4256987804832779
  0.9437814496135524  0.2292931062425118  0.4211380172984057
 
  0.00000000E+00  0.00000000E+00  0.00000000E+00
  0.00000000E+00  0.00000000E+00  0.00000000E+00
  0.00000000E+00  0.00000000E+00  0.00000000E+00
  0.00000000E+00  0.00000000E+00  0.00000000E+00
  0.00000000E+00  0.00000000E+00  0.00000000E+00
  0.00000000E+00  0.00000000E+00  0.00000000E+00
  0.00000000E+00  0.00000000E+00  0.00000000E+00
  0.00000000E+00  0.00000000E+00  0.00000000E+00
  0.00000000E+00  0.00000000E+00  0.00000000E+00
  0.00000000E+00  0.00000000E+00  0.00000000E+00
  0.00000000E+00  0.00000000E+00  0.00000000E+00
  0.00000000E+00  0.00000000E+00  0.00000000E+00
  0.00000000E+00  0.00000000E+00  0.00000000E+00
  0.00000000E+00  0.00000000E+00  0.00000000E+00
  0.00000000E+00  0.00000000E+00  0.00000000E+00
  0.00000000E+00  0.00000000E+00  0.00000000E+00
  0.00000000E+00  0.00000000E+00  0.00000000E+00
  0.00000000E+00  0.00000000E+00  0.00000000E+00
  0.00000000E+00  0.00000000E+00  0.00000000E+00
  0.00000000E+00  0.00000000E+00  0.00000000E+00
  0.00000000E+00  0.00000000E+00  0.00000000E+00
  0.00000000E+00  0.00000000E+00  0.00000000E+00
  0.00000000E+00  0.00000000E+00  0.00000000E+00
  0.00000000E+00  0.00000000E+00  0.00000000E+00
  0.00000000E+00  0.00000000E+00  0.00000000E+00
  0.00000000E+00  0.00000000E+00  0.00000000E+00
  0.00000000E+00  0.00000000E+00  0.00000000E+00
  0.00000000E+00  0.00000000E+00  0.00000000E+00
  0.00000000E+00  0.00000000E+00  0.00000000E+00
  0.00000000E+00  0.00000000E+00  0.00000000E+00
  0.00000000E+00  0.00000000E+00  0.00000000E+00
  0.00000000E+00  0.00000000E+00  0.00000000E+00
  0.00000000E+00  0.00000000E+00  0.00000000E+00
  0.00000000E+00  0.00000000E+00  0.00000000E+00
  0.00000000E+00  0.00000000E+00  0.00000000E+00
  0.00000000E+00  0.00000000E+00  0.00000000E+00
  0.00000000E+00  0.00000000E+00  0.00000000E+00
  0.00000000E+00  0.00000000E+00  0.00000000E+00
  0.00000000E+00  0.00000000E+00  0.00000000E+00
  0.00000000E+00  0.00000000E+00  0.00000000E+00
  0.00000000E+00  0.00000000E+00  0.00000000E+00
  0.00000000E+00  0.00000000E+00  0.00000000E+00
  0.00000000E+00  0.00000000E+00  0.00000000E+00
  0.00000000E+00  0.00000000E+00  0.00000000E+00
  0.00000000E+00  0.00000000E+00  0.00000000E+00
  0.00000000E+00  0.00000000E+00  0.00000000E+00
  0.00000000E+00  0.00000000E+00  0.00000000E+00
  0.00000000E+00  0.00000000E+00  0.00000000E+00
  0.00000000E+00  0.00000000E+00  0.00000000E+00
  0.00000000E+00  0.00000000E+00  0.00000000E+00
  0.00000000E+00  0.00000000E+00  0.00000000E+00
  0.00000000E+00  0.00000000E+00  0.00000000E+00
  0.00000000E+00  0.00000000E+00  0.00000000E+00
  0.00000000E+00  0.00000000E+00  0.00000000E+00
  0.00000000E+00  0.00000000E+00  0.00000000E+00
  0.00000000E+00  0.00000000E+00  0.00000000E+00
  0.00000000E+00  0.00000000E+00  0.00000000E+00
  0.00000000E+00  0.00000000E+00  0.00000000E+00
