La   Li   Ti   O                        
   1.00000000000000     
     7.8586303803313999    0.0000514230523997   -0.1376059729438770
     0.0000510894174330    7.6905721352157803    0.0000181625204806
    -0.1379224693673280    0.0000185689576894    7.7351728649375699
   La   Li   Ti   O 
     4     4     8    24
Direct
  0.9959988629976737  0.9997104635693870  0.4832789107295287
  0.9841988241061833  0.5075798619440324  0.0005364724887796
  0.9967057110356979  0.5062608394741208  0.4975281947982667
  0.4850127050553540  0.5019051597988635  0.5122310894303740
  0.9028801190912019  0.9870071380997387  0.0262749812923247
  0.5125406828462450  0.2851879437974019  0.9660436699283846
  0.4350855007610134  0.0026666473866978  0.5564494121699165
  0.4019404480847813  0.5676968249753340  0.0492139552328236
  0.2479212754822465  0.2447624901839603  0.2355585142024464
  0.2486241547194093  0.2436685280249088  0.7551891607123236
  0.2490653261262934  0.7795356860469110  0.2511625136147319
  0.2592244907920335  0.7558111436529004  0.7687561457645581
  0.7348259904663214  0.2478473200313812  0.2394171410025061
  0.7495528938342938  0.2358157840812234  0.7411877168243484
  0.7255904739448894  0.7561584253183017  0.2379085633345585
  0.7370610031573791  0.7609020842419347  0.7456211927587195
  0.2788586628910779  0.2185712539729658  0.9967562749259056
  0.0120034821455037  0.2152579008592846  0.2281513598703013
  0.2877446004690296  0.0075493965220284  0.3247259948865219
  0.2428493835919873  0.3027240568112299  0.5015182667918404
  0.0169099698811928  0.3004708894900847  0.7545328336697025
  0.2284665285275753  0.0033405879200373  0.7025159741487514
  0.2767474089035351  0.7819969306602593  0.0034599274519807
  0.0127855624910175  0.7947774921780105  0.2268261094397916
  0.2164116409479181  0.5001409647374696  0.2114267002963684
  0.2387520973978846  0.7051730641883197  0.4960519494881636
  0.0230333118062995  0.7061039639832051  0.7549242962880661
  0.3220787310512326  0.5038834860807971  0.7973986978065221
  0.7519529913054376  0.2760717293706804  0.9866537604464957
  0.5081111745230678  0.3008013535372804  0.2480463967831620
  0.7345633065201636  0.0030725747207214  0.2243315069748540
  0.7880151615933100  0.2404484958207820  0.4881449662907999
  0.5158283029741828  0.2183152697738449  0.7156396177022313
  0.8200464361662675  0.0017183319456344  0.7576932580374486
  0.7545821179748259  0.7342924702998963  0.9884470670056593
  0.5017713932338647  0.7022293904218179  0.2594726677051474
  0.8002350058376004  0.5044155122552759  0.2535061486263485
  0.7896750407933608  0.7658606057649279  0.4855708154617364
  0.5110994331346224  0.7894910605216438  0.6965416885534425
  0.7384232217357072  0.5061583093143741  0.7096784194221808
 
  0.00000000E+00  0.00000000E+00  0.00000000E+00
  0.00000000E+00  0.00000000E+00  0.00000000E+00
  0.00000000E+00  0.00000000E+00  0.00000000E+00
  0.00000000E+00  0.00000000E+00  0.00000000E+00
  0.00000000E+00  0.00000000E+00  0.00000000E+00
  0.00000000E+00  0.00000000E+00  0.00000000E+00
  0.00000000E+00  0.00000000E+00  0.00000000E+00
  0.00000000E+00  0.00000000E+00  0.00000000E+00
  0.00000000E+00  0.00000000E+00  0.00000000E+00
  0.00000000E+00  0.00000000E+00  0.00000000E+00
  0.00000000E+00  0.00000000E+00  0.00000000E+00
  0.00000000E+00  0.00000000E+00  0.00000000E+00
  0.00000000E+00  0.00000000E+00  0.00000000E+00
  0.00000000E+00  0.00000000E+00  0.00000000E+00
  0.00000000E+00  0.00000000E+00  0.00000000E+00
  0.00000000E+00  0.00000000E+00  0.00000000E+00
  0.00000000E+00  0.00000000E+00  0.00000000E+00
  0.00000000E+00  0.00000000E+00  0.00000000E+00
  0.00000000E+00  0.00000000E+00  0.00000000E+00
  0.00000000E+00  0.00000000E+00  0.00000000E+00
  0.00000000E+00  0.00000000E+00  0.00000000E+00
  0.00000000E+00  0.00000000E+00  0.00000000E+00
  0.00000000E+00  0.00000000E+00  0.00000000E+00
  0.00000000E+00  0.00000000E+00  0.00000000E+00
  0.00000000E+00  0.00000000E+00  0.00000000E+00
  0.00000000E+00  0.00000000E+00  0.00000000E+00
  0.00000000E+00  0.00000000E+00  0.00000000E+00
  0.00000000E+00  0.00000000E+00  0.00000000E+00
  0.00000000E+00  0.00000000E+00  0.00000000E+00
  0.00000000E+00  0.00000000E+00  0.00000000E+00
  0.00000000E+00  0.00000000E+00  0.00000000E+00
  0.00000000E+00  0.00000000E+00  0.00000000E+00
  0.00000000E+00  0.00000000E+00  0.00000000E+00
  0.00000000E+00  0.00000000E+00  0.00000000E+00
  0.00000000E+00  0.00000000E+00  0.00000000E+00
  0.00000000E+00  0.00000000E+00  0.00000000E+00
  0.00000000E+00  0.00000000E+00  0.00000000E+00
  0.00000000E+00  0.00000000E+00  0.00000000E+00
  0.00000000E+00  0.00000000E+00  0.00000000E+00
  0.00000000E+00  0.00000000E+00  0.00000000E+00
