Ca8 Ti8 O23                             
   1.00000000000000     
     7.8785600000000002    0.0000830000000000    0.0061560000000000
    -0.0000490000000000    7.8741810000000001    0.0000520000000000
     0.0062680000000000   -0.0000960000000000    7.8786889999999996
   Ca   Ti   O 
     8     8    23
Direct
  0.0342709999999968  0.9840739999999997  0.9789620000000028
  0.0176480000000012  0.9924499999999981  0.4940199999999990
  0.0015709999999984  0.5022560000000027  0.0020329999999973
  0.9971350000000001  0.4919930000000008  0.5482330000000033
  0.5024469999999965  0.0004500000000007  0.9829719999999966
  0.5047560000000004  0.9978470000000002  0.5006989999999973
  0.4842719999999971  0.5204159999999973  0.0055430000000030
  0.4746469999999974  0.5172239999999988  0.5359979999999993
  0.2332320000000010  0.2329780000000028  0.2449319999999986
  0.2567999999999984  0.2469040000000007  0.7508100000000013
  0.2506380000000021  0.7438289999999981  0.2560339999999997
  0.2496420000000015  0.7502629999999968  0.7517199999999988
  0.7660440000000008  0.2596750000000014  0.2695250000000016
  0.7536399999999972  0.2559719999999999  0.7719049999999967
  0.7530780000000021  0.7253090000000029  0.2647600000000025
  0.7477000000000018  0.7571930000000009  0.7595809999999972
  0.5610089999999985  0.1512790000000024  0.2484380000000002
  0.2780690000000021  0.1988660000000024  0.0014329999999987
  0.9931460000000030  0.1912420000000026  0.2094650000000016
  0.2574660000000009  0.9883450000000025  0.2999229999999997
  0.2354070000000021  0.2819300000000027  0.4933550000000011
  0.0065219999999968  0.2901460000000000  0.7804420000000007
  0.2146159999999995  0.9977710000000002  0.7201779999999971
  0.2833940000000013  0.7824919999999977  0.0036770000000033
  0.9918150000000026  0.7685540000000017  0.2141670000000033
  0.2416759999999982  0.4825349999999986  0.2034639999999968
  0.2140879999999967  0.7032540000000012  0.5036220000000000
  0.9978020000000001  0.7206010000000020  0.7870940000000033
  0.2887440000000012  0.4984639999999985  0.7811629999999994
  0.7317899999999966  0.3224239999999980  0.0018230000000017
  0.7986059999999995  0.2154329999999973  0.5008880000000033
  0.5061749999999989  0.2175849999999997  0.7254959999999997
  0.7767249999999990  0.0095230000000015  0.8101660000000024
  0.7079049999999967  0.7330309999999969  0.0127710000000008
  0.5010949999999994  0.7200660000000028  0.2922909999999987
  0.7813319999999990  0.4964429999999993  0.3077600000000018
  0.7747150000000005  0.8172890000000024  0.4917980000000028
  0.4991029999999981  0.7822170000000028  0.7199770000000001
  0.7261620000000022  0.5133739999999989  0.7062579999999983
 
  0.00000000E+00  0.00000000E+00  0.00000000E+00
  0.00000000E+00  0.00000000E+00  0.00000000E+00
  0.00000000E+00  0.00000000E+00  0.00000000E+00
  0.00000000E+00  0.00000000E+00  0.00000000E+00
  0.00000000E+00  0.00000000E+00  0.00000000E+00
  0.00000000E+00  0.00000000E+00  0.00000000E+00
  0.00000000E+00  0.00000000E+00  0.00000000E+00
  0.00000000E+00  0.00000000E+00  0.00000000E+00
  0.00000000E+00  0.00000000E+00  0.00000000E+00
  0.00000000E+00  0.00000000E+00  0.00000000E+00
  0.00000000E+00  0.00000000E+00  0.00000000E+00
  0.00000000E+00  0.00000000E+00  0.00000000E+00
  0.00000000E+00  0.00000000E+00  0.00000000E+00
  0.00000000E+00  0.00000000E+00  0.00000000E+00
  0.00000000E+00  0.00000000E+00  0.00000000E+00
  0.00000000E+00  0.00000000E+00  0.00000000E+00
  0.00000000E+00  0.00000000E+00  0.00000000E+00
  0.00000000E+00  0.00000000E+00  0.00000000E+00
  0.00000000E+00  0.00000000E+00  0.00000000E+00
  0.00000000E+00  0.00000000E+00  0.00000000E+00
  0.00000000E+00  0.00000000E+00  0.00000000E+00
  0.00000000E+00  0.00000000E+00  0.00000000E+00
  0.00000000E+00  0.00000000E+00  0.00000000E+00
  0.00000000E+00  0.00000000E+00  0.00000000E+00
  0.00000000E+00  0.00000000E+00  0.00000000E+00
  0.00000000E+00  0.00000000E+00  0.00000000E+00
  0.00000000E+00  0.00000000E+00  0.00000000E+00
  0.00000000E+00  0.00000000E+00  0.00000000E+00
  0.00000000E+00  0.00000000E+00  0.00000000E+00
  0.00000000E+00  0.00000000E+00  0.00000000E+00
  0.00000000E+00  0.00000000E+00  0.00000000E+00
  0.00000000E+00  0.00000000E+00  0.00000000E+00
  0.00000000E+00  0.00000000E+00  0.00000000E+00
  0.00000000E+00  0.00000000E+00  0.00000000E+00
  0.00000000E+00  0.00000000E+00  0.00000000E+00
  0.00000000E+00  0.00000000E+00  0.00000000E+00
  0.00000000E+00  0.00000000E+00  0.00000000E+00
  0.00000000E+00  0.00000000E+00  0.00000000E+00
  0.00000000E+00  0.00000000E+00  0.00000000E+00
