La   Li   Ti   O 
   1.00000000000000     
   7.8586303803313999   0.0000514230523997  -0.1376059729438770
   0.0000510894174330   7.6905721352157803   0.0000181625204806
  -0.1379224693673280   0.0000185689576894   7.7351728649375699
La   Li   Ti   O 
4  4  8  24  
Direct
  0.0010726726999258  0.0002251059916021  0.4880713352210821  
  0.9849785379507338  0.5002252428464433  0.0035736052617302  
  0.9932436012485544  0.5002233637692626  0.5007058537551253  
  0.4809533068456920  0.5002269519449362  0.5051214719886650  
  0.9282081965282848  0.0002120964583856  0.0444036805481241  
  0.6010368670640119  0.5001948191319461  0.9002252988982796  
  0.4327178184711596  0.0002337478428302  0.5528801969131898  
  0.3690940828447408  0.5003193614814092  0.0578164619455389  
  0.2444117508069817  0.2329722175236095  0.2477369949935403  
  0.2602259496828986  0.2445497048439937  0.7682236711945167  
  0.2443964395248027  0.7675029892212142  0.2477569739971152  
  0.2602159246506520  0.7559094625380333  0.7682262480816986  
  0.7228184673982674  0.2451323653567887  0.2313938852328419  
  0.7408654994174362  0.2314251564495543  0.7387626881866816  
  0.7228126431571162  0.7553201501835481  0.2313942732110507  
  0.7408545751021645  0.7690077158043915  0.7387633350723067  
  0.2759008683050596  0.2379628976796029  0.0051402250253855  
  0.0080262823954352  0.2041162623131661  0.2184892666924652  
  0.2848840335330180  0.0002279276752295  0.3230348318346745  
  0.2338494738381522  0.2932120032266078  0.5008360004596726  
  0.0236172078181155  0.3003219016828032  0.7591381491382708  
  0.2315250841543485  0.0002281055918706  0.7148451580120141  
  0.2758837020691361  0.7624798839430095  0.0051448068596095  
  0.0080190845572747  0.7963364952542650  0.2184860604660119  
  0.2055013850201794  0.5002234571015436  0.2285724926870549  
  0.2338360429343117  0.7072477291399837  0.5008283363527407  
  0.0236131406702053  0.7001295127825938  0.7591346969474675  
  0.3429190550075655  0.5002314091914700  0.7942502069171613  
  0.7373948474908139  0.2944944651722060  0.9823251317043218  
  0.5005569003471251  0.2975439726861229  0.2628248472465442  
  0.7271152759492475  0.0002235016357983  0.2092197215404349  
  0.7918614635593738  0.2296505489708353  0.4864503290658400  
  0.5141758470512178  0.2091880408669250  0.6957736088776818  
  0.8236108541571425  0.0002199847387653  0.7708009282524494  
  0.7373768393276016  0.7059431725822497  0.9823233896835692  
  0.5005396513791019  0.7028967290258606  0.2628088955384690  
  0.7952632577395233  0.5002236156594937  0.2594111177352169  
  0.7918511969242702  0.7707960333112688  0.4864458364590121  
  0.5141636537424159  0.7912659602860136  0.6957631610467473  
  0.7320186797580992  0.5002262287978989  0.7014703886935489  
