Ca8 Ti8 O23
1.0
7.878560 0.000083 0.006156
-0.000049 7.874181 0.000052
0.006268 -0.000096 7.878689
Ca Ti O
8 8 23
direct
0.028404 0.000080 0.984536 Ca
0.022702 0.000199 0.480933 Ca
0.000747 0.500041 0.013465 Ca
0.995243 0.500249 0.547803 Ca
0.499244 0.000134 0.966462 Ca
0.521354 0.999931 0.502484 Ca
0.478282 0.500099 0.022275 Ca
0.474032 0.500114 0.528050 Ca
0.263570 0.249691 0.257489 Ti
0.249347 0.248556 0.753134 Ti
0.263519 0.750413 0.257578 Ti
0.249463 0.751499 0.753308 Ti
0.766507 0.263418 0.266467 Ti
0.746993 0.251976 0.770623 Ti
0.766596 0.736648 0.266422 Ti
0.747088 0.747941 0.770677 Ti
0.500673 0.284045 0.290022 O
0.282551 0.213848 0.003204 O
0.989672 0.201942 0.210817 O
0.280934 0.000149 0.298984 O
0.209264 0.286070 0.501873 O
0.994972 0.287615 0.788512 O
0.206794 0.000029 0.727351 O
0.282646 0.786365 0.003203 O
0.989913 0.798027 0.210751 O
0.226801 0.500088 0.209034 O
0.209587 0.714088 0.501877 O
0.995001 0.712541 0.788436 O
0.286482 0.500089 0.779506 O
0.705680 0.288800 0.002862 O
0.780068 0.195562 0.491995 O
0.496413 0.213500 0.717012 O
0.770697 0.000161 0.806537 O
0.705907 0.711279 0.002903 O
0.500775 0.716319 0.289997 O
0.808120 0.500051 0.286375 O
0.780300 0.804516 0.492037 O
0.496533 0.786708 0.717062 O
0.721739 0.500136 0.702441 O

0.000000 0.000000 0.000000
0.000000 0.000000 0.000000
0.000000 0.000000 0.000000
0.000000 0.000000 0.000000
0.000000 0.000000 0.000000
0.000000 0.000000 0.000000
0.000000 0.000000 0.000000
0.000000 0.000000 0.000000
0.000000 0.000000 0.000000
0.000000 0.000000 0.000000
0.000000 0.000000 0.000000
0.000000 0.000000 0.000000
0.000000 0.000000 0.000000
0.000000 0.000000 0.000000
0.000000 0.000000 0.000000
0.000000 0.000000 0.000000
0.000000 0.000000 0.000000
0.000000 0.000000 0.000000
0.000000 0.000000 0.000000
0.000000 0.000000 0.000000
0.000000 0.000000 0.000000
0.000000 0.000000 0.000000
0.000000 0.000000 0.000000
0.000000 0.000000 0.000000
0.000000 0.000000 0.000000
0.000000 0.000000 0.000000
0.000000 0.000000 0.000000
0.000000 0.000000 0.000000
0.000000 0.000000 0.000000
0.000000 0.000000 0.000000
0.000000 0.000000 0.000000
0.000000 0.000000 0.000000
0.000000 0.000000 0.000000
0.000000 0.000000 0.000000
0.000000 0.000000 0.000000
0.000000 0.000000 0.000000
0.000000 0.000000 0.000000
0.000000 0.000000 0.000000
0.000000 0.000000 0.000000
