Ca8 Ti8 O23                             
   1.00000000000000     
     7.8785600000000002    0.0000830000000000    0.0061560000000000
    -0.0000490000000000    7.8741810000000001    0.0000520000000000
     0.0062680000000000   -0.0000960000000000    7.8786889999999996
   Ca   Ti   O 
     8     8    23
Direct
  0.0302119999999988  0.9905279999999976  0.9834749999999985
  0.0195030000000003  0.9973349999999996  0.4894990000000021
  0.9930329999999969  0.4973049999999972  0.0145079999999993
  0.9962149999999994  0.4924079999999975  0.5462470000000010
  0.5040249999999986  0.0000119999999981  0.9775899999999993
  0.5066980000000001  0.0011750000000035  0.5010679999999965
  0.4814459999999983  0.5083589999999987  0.0134680000000031
  0.4721070000000012  0.5064179999999965  0.5306690000000032
  0.2452240000000003  0.2386199999999974  0.2490170000000020
  0.2535069999999990  0.2465520000000012  0.7531839999999974
  0.2430659999999989  0.7460489999999993  0.2544419999999974
  0.2507909999999995  0.7487759999999994  0.7534160000000014
  0.7582870000000028  0.2590980000000016  0.2698669999999979
  0.7512100000000004  0.2528760000000005  0.7694830000000010
  0.7505680000000012  0.7294410000000013  0.2702320000000000
  0.7479939999999985  0.7503620000000026  0.7672110000000032
  0.5219480000000019  0.2228530000000006  0.2721239999999980
  0.2830650000000006  0.2017179999999996  0.9991920000000007
  0.0032190000000014  0.2012229999999988  0.2113799999999983
  0.2677410000000009  0.9877759999999967  0.3007970000000029
  0.2280170000000012  0.2827389999999994  0.4972560000000001
  0.0044839999999979  0.2878809999999987  0.7819039999999973
  0.2130980000000022  0.9966980000000021  0.7214010000000002
  0.2885470000000012  0.7833869999999976  0.0014830000000003
  0.0019830000000027  0.7720589999999987  0.2089900000000000
  0.2418430000000029  0.4871899999999982  0.2051370000000006
  0.2152570000000011  0.7031640000000010  0.5017289999999974
  0.9993630000000024  0.7153729999999996  0.7877450000000010
  0.2914499999999975  0.4975170000000020  0.7804849999999988
  0.7248620000000017  0.3055349999999990  0.0001770000000008
  0.7941879999999983  0.2042610000000025  0.4966250000000016
  0.5047130000000024  0.2143990000000002  0.7211399999999983
  0.7757750000000030  0.0039640000000034  0.8087409999999977
  0.7103499999999983  0.7179349999999971  0.0030720000000031
  0.5090739999999983  0.7172359999999998  0.2896459999999976
  0.8026959999999974  0.4951650000000001  0.2931770000000000
  0.7828379999999981  0.8103070000000017  0.4902659999999983
  0.5006600000000034  0.7830960000000005  0.7159019999999998
  0.7258690000000030  0.5048510000000022  0.7016190000000009
 
  0.00000000E+00  0.00000000E+00  0.00000000E+00
  0.00000000E+00  0.00000000E+00  0.00000000E+00
  0.00000000E+00  0.00000000E+00  0.00000000E+00
  0.00000000E+00  0.00000000E+00  0.00000000E+00
  0.00000000E+00  0.00000000E+00  0.00000000E+00
  0.00000000E+00  0.00000000E+00  0.00000000E+00
  0.00000000E+00  0.00000000E+00  0.00000000E+00
  0.00000000E+00  0.00000000E+00  0.00000000E+00
  0.00000000E+00  0.00000000E+00  0.00000000E+00
  0.00000000E+00  0.00000000E+00  0.00000000E+00
  0.00000000E+00  0.00000000E+00  0.00000000E+00
  0.00000000E+00  0.00000000E+00  0.00000000E+00
  0.00000000E+00  0.00000000E+00  0.00000000E+00
  0.00000000E+00  0.00000000E+00  0.00000000E+00
  0.00000000E+00  0.00000000E+00  0.00000000E+00
  0.00000000E+00  0.00000000E+00  0.00000000E+00
  0.00000000E+00  0.00000000E+00  0.00000000E+00
  0.00000000E+00  0.00000000E+00  0.00000000E+00
  0.00000000E+00  0.00000000E+00  0.00000000E+00
  0.00000000E+00  0.00000000E+00  0.00000000E+00
  0.00000000E+00  0.00000000E+00  0.00000000E+00
  0.00000000E+00  0.00000000E+00  0.00000000E+00
  0.00000000E+00  0.00000000E+00  0.00000000E+00
  0.00000000E+00  0.00000000E+00  0.00000000E+00
  0.00000000E+00  0.00000000E+00  0.00000000E+00
  0.00000000E+00  0.00000000E+00  0.00000000E+00
  0.00000000E+00  0.00000000E+00  0.00000000E+00
  0.00000000E+00  0.00000000E+00  0.00000000E+00
  0.00000000E+00  0.00000000E+00  0.00000000E+00
  0.00000000E+00  0.00000000E+00  0.00000000E+00
  0.00000000E+00  0.00000000E+00  0.00000000E+00
  0.00000000E+00  0.00000000E+00  0.00000000E+00
  0.00000000E+00  0.00000000E+00  0.00000000E+00
  0.00000000E+00  0.00000000E+00  0.00000000E+00
  0.00000000E+00  0.00000000E+00  0.00000000E+00
  0.00000000E+00  0.00000000E+00  0.00000000E+00
  0.00000000E+00  0.00000000E+00  0.00000000E+00
  0.00000000E+00  0.00000000E+00  0.00000000E+00
  0.00000000E+00  0.00000000E+00  0.00000000E+00
