La   Li   Ti   O                        
   1.00000000000000     
     7.8586303803313999    0.0000514230523997   -0.1376059729438770
     0.0000510894174330    7.6905721352157803    0.0000181625204806
    -0.1379224693673280    0.0000185689576894    7.7351728649375699
   La   Li   Ti   O 
     4     4     8    24
Direct
  0.9988411582101739  0.9983206766097744  0.4857065431384052
  0.9837969328712763  0.5004881803523846  0.0029563911310953
  0.9941321019499867  0.4993587764687153  0.5000318965427285
  0.4812434769250492  0.4993004157934096  0.5042011001709330
  0.9226487151327475  0.9946617946417855  0.0412710454374345
  0.5753766673182156  0.4468805794627729  0.8849620392039740
  0.4342856178382706  0.0032375965873909  0.5550958241167300
  0.3821688169427896  0.5483375300411020  0.0639630493349097
  0.2461671441236739  0.2393154855624904  0.2404460958922303
  0.2584155938405100  0.2413277151096012  0.7652944713313811
  0.2448401305872623  0.7759565492582078  0.2525161871134065
  0.2597262925188007  0.7551445450493984  0.7706183389938160
  0.7248539068141616  0.2442742376062154  0.2301853528516211
  0.7496232457534843  0.2237910227724613  0.7371364857007512
  0.7230967886220711  0.7538216475176216  0.2348317196616327
  0.7361458482595942  0.7597678012517550  0.7432383390616363
  0.2741087553204662  0.2232630016185907  0.0025616157460354
  0.0087085389024712  0.2070696866369470  0.2237446342869022
  0.2851032607497456  0.0035547855886271  0.3268160747880688
  0.2378298653864836  0.2985132767915645  0.5042808438631450
  0.0204375807647451  0.2986823192719996  0.7585204993822312
  0.2310849343102782  0.0005221073005815  0.7096153231233449
  0.2739428165375789  0.7743887538831161  0.0061650323659141
  0.0085075201637773  0.7953074805569239  0.2221276161443290
  0.2095940005432639  0.4982160066009265  0.2214874916358252
  0.2346650407286492  0.7049997753295592  0.4986996087994022
  0.0247233338626308  0.6984546793531187  0.7582370351666238
  0.3388547686081227  0.5025182383022437  0.8020538750809514
  0.7438449149920983  0.2862844711154918  0.9841782734486998
  0.5026739465111505  0.2955557016211287  0.2630851690544287
  0.7295406891686887  0.9991019735219214  0.2158118565630084
  0.7910347568908408  0.2303417809708191  0.4890570245854670
  0.5171337995529767  0.2157646542077110  0.7061167610835125
  0.8245377447584717  0.9956673843022401  0.7679674404851417
  0.7412024009865996  0.7128031017583331  0.9859671915483293
  0.4984941076570612  0.7003924857765127  0.2592177462463359
  0.7952819946741204  0.4993524518529405  0.2588866365347711
  0.7897934756501849  0.7663754787293049  0.4864430127940961
  0.5116866028477328  0.7909344526917974  0.6954058905073370
  0.7307975087820707  0.5015990357014687  0.7070120058300452
 
  0.00000000E+00  0.00000000E+00  0.00000000E+00
  0.00000000E+00  0.00000000E+00  0.00000000E+00
  0.00000000E+00  0.00000000E+00  0.00000000E+00
  0.00000000E+00  0.00000000E+00  0.00000000E+00
  0.00000000E+00  0.00000000E+00  0.00000000E+00
  0.00000000E+00  0.00000000E+00  0.00000000E+00
  0.00000000E+00  0.00000000E+00  0.00000000E+00
  0.00000000E+00  0.00000000E+00  0.00000000E+00
  0.00000000E+00  0.00000000E+00  0.00000000E+00
  0.00000000E+00  0.00000000E+00  0.00000000E+00
  0.00000000E+00  0.00000000E+00  0.00000000E+00
  0.00000000E+00  0.00000000E+00  0.00000000E+00
  0.00000000E+00  0.00000000E+00  0.00000000E+00
  0.00000000E+00  0.00000000E+00  0.00000000E+00
  0.00000000E+00  0.00000000E+00  0.00000000E+00
  0.00000000E+00  0.00000000E+00  0.00000000E+00
  0.00000000E+00  0.00000000E+00  0.00000000E+00
  0.00000000E+00  0.00000000E+00  0.00000000E+00
  0.00000000E+00  0.00000000E+00  0.00000000E+00
  0.00000000E+00  0.00000000E+00  0.00000000E+00
  0.00000000E+00  0.00000000E+00  0.00000000E+00
  0.00000000E+00  0.00000000E+00  0.00000000E+00
  0.00000000E+00  0.00000000E+00  0.00000000E+00
  0.00000000E+00  0.00000000E+00  0.00000000E+00
  0.00000000E+00  0.00000000E+00  0.00000000E+00
  0.00000000E+00  0.00000000E+00  0.00000000E+00
  0.00000000E+00  0.00000000E+00  0.00000000E+00
  0.00000000E+00  0.00000000E+00  0.00000000E+00
  0.00000000E+00  0.00000000E+00  0.00000000E+00
  0.00000000E+00  0.00000000E+00  0.00000000E+00
  0.00000000E+00  0.00000000E+00  0.00000000E+00
  0.00000000E+00  0.00000000E+00  0.00000000E+00
  0.00000000E+00  0.00000000E+00  0.00000000E+00
  0.00000000E+00  0.00000000E+00  0.00000000E+00
  0.00000000E+00  0.00000000E+00  0.00000000E+00
  0.00000000E+00  0.00000000E+00  0.00000000E+00
  0.00000000E+00  0.00000000E+00  0.00000000E+00
  0.00000000E+00  0.00000000E+00  0.00000000E+00
  0.00000000E+00  0.00000000E+00  0.00000000E+00
  0.00000000E+00  0.00000000E+00  0.00000000E+00
