La   Li   Ti   O                        
1.0
       10.9481601715         0.0000000000         0.0000000000
       -2.7370406741         4.7406920522         0.0000000000
        0.0000000000         0.0000000000        13.4090003967
   La   Ti    O    Li
    7   12   36    3
Cartesian
2.74241352	1.60947645	7.94600487	La
8.18406105	1.60633719	7.89823771	La
0.05141679	3.24460888	12.29377270	La
5.49981928	3.22180104	12.36052322	La
0.00841049	3.19798136	5.57478571	La
5.43515253	3.16321635	5.58176041	La
0.05043806	0.03589876	3.28313375	La
0.01917515	0.11841412	13.38979149	Ti
5.53878975	0.12618884	0.17693111	Ti
-0.00659871	0.04048289	6.77768326	Ti
5.46557474	0.01053332	6.73888588	Ti
2.80761552	1.66116703	4.35779429	Ti
8.12364101	1.57205153	4.35901403	Ti
2.79005456	1.62950969	11.23403740	Ti
8.24740219	1.64621258	11.20212174	Ti
-0.00470627	3.20720887	9.07041073	Ti
5.47542429	3.19364905	9.07808685	Ti
0.12392161	3.29007602	2.18884492	Ti
5.52234745	3.16921735	2.22037029	Ti
0.12590939	4.74047422	3.38990498	O
5.82196808	4.67999458	3.46126318	O
2.43697190	0.00979663	10.06328583	O
5.10288096	4.70896387	10.14038563	O
9.42216778	2.62746310	3.43601632	O
3.95864391	2.64205170	3.37032890	O
9.66491222	2.14296866	10.04361534	O
4.25319433	2.04802775	10.00755310	O
1.13420177	2.17385721	3.46750760	O
6.63339996	2.18050528	3.45854330	O
1.51318741	2.67417574	10.08183003	O
6.95864487	2.58251691	10.06423855	O
0.32124645	1.64422429	7.75430679	O
5.75269222	1.66906536	7.72394848	O
-0.36146450	1.55353451	1.18800485	O
5.01074982	1.68866944	1.03124154	O
1.15523160	4.21069384	7.77395916	O
6.61113167	4.21755981	7.77209711	O
1.52593243	3.56717873	0.99538899	O
7.03682327	3.59537482	1.16700327	O
-1.47739065	3.65284658	7.71416950	O
3.96480393	3.70426536	7.80753136	O
-1.24720407	4.12487459	1.14018929	O
4.28841019	4.20396376	1.07026434	O
3.09060836	3.21725321	12.22271729	O
8.52926922	3.11015797	12.39639473	O
2.45065093	3.08609772	5.72123146	O
7.85509157	3.15988684	5.61755085	O
1.25642955	1.08085525	12.36548042	O
6.63432694	1.08100712	12.29794025	O
1.43095362	0.51295751	5.55162334	O
7.03107500	0.56284404	5.70465469	O
4.00421715	0.50939536	12.21344757	O
9.42128849	0.55040497	12.35829544	O
4.14874172	1.04299295	5.67237091	O
9.69608116	1.08650470	5.63898754	O
5.55006123	0.06732777	10.76933193	Li
3.06753063	2.32571483	1.40617502	Li
8.60122681	2.19922686	0.90062231	Li
