La   Li   Ti   O                        
   1.00000000000000     
    10.9481601714999996    0.0000000000000000    0.0000000000000000
    -2.7370406741000002    4.7406920522000000    0.0000000000000000
     0.0000000000000000    0.0000000000000000   13.4090003966999998
   La   Li   Ti   O 
     7     3    12    36
Direct
  0.3346492619905207  0.3386624573978990  0.5954629409427220
  0.8338447296932094  0.3420831131756806  0.5905257361603143
  0.1788203211130467  0.6903233788932929  0.9172204764404890
  0.6699819318150102  0.6703399841046228  0.9225450956054470
  0.1676081571252276  0.6778596679833802  0.4167438754058855
  0.6641262280480418  0.6701759782323604  0.4155295112196649
  0.0094199700587318  0.0102361208163481  0.2444897429989198
  0.5170129000775572  0.0257263226881923  0.8015220543880653
  0.4010542902248713  0.2281846624966099  0.1542777588917870
  0.9021655473683593  0.4709831415704114  0.0683473647695580
  0.0084256116348807  0.0248277804003126  0.9990265802603011
  0.5129913038443749  0.0129753333298266  0.0116529658101272
  0.0004448163769461  0.0105821128378876  0.5057843785047356
  0.5010507182227234  0.0073846775759221  0.5063365863392641
  0.3432928006983512  0.3591726514389472  0.3313934198317854
  0.8237215466969396  0.3360226582798203  0.3253585987895560
  0.3408516369352683  0.3453882715017043  0.8388220200285327
  0.8400634710344039  0.3438070727801049  0.8364830640786556
  0.1680027739785197  0.6748664877506704  0.6763809971923124
  0.6692014343318912  0.6756093229131579  0.6782761123020867
  0.1822898165105764  0.6856218564480754  0.1638905501170753
  0.6734789562651731  0.6838349655329330  0.1651148693459570
  0.2682102233434248  0.0095374428548148  0.2504968530507064
  0.7830660063833523  0.9945836644841415  0.2588308471537997
  0.2237596586614335  0.0001377288806385  0.7524039314924809
  0.7141091307477673  0.9955526842658569  0.7550048375724114
  0.0034639984802822  0.5631894323484370  0.2585029547452620
  0.5033471623753618  0.5504480066050266  0.2554965647639092
  0.9951152304895979  0.4521933955082508  0.7478751512055193
  0.4968187784667163  0.4323030615431258  0.7461646046895301
  0.2190431316056899  0.4647609848717401  0.2605147883805332
  0.7245116348384404  0.4659175011568631  0.2582778618448257
  0.2768730921678128  0.5581422529570189  0.7505868836647696
  0.7726157935551595  0.5478047010534485  0.7513764073293236
  0.1172717679699597  0.3492238308169913  0.5773543295814607
  0.6153553744227763  0.3521106702678738  0.5776114037064400
  0.0511229809627976  0.3361386276297496  0.0877387736456273
  0.5607311404589848  0.3497528107656455  0.0811226669812406
  0.3284451493716419  0.8886204524253486  0.5820620059157887
  0.8278183338666212  0.8908552785425563  0.5805070371596170
  0.3287447629491112  0.7928759157179949  0.0742742098578894
  0.8376559488874086  0.7709825323395013  0.0897665628308579
  0.0595155167349973  0.7734898046468751  0.5751409584889099
  0.5578707207956208  0.7781862937321605  0.5814566788534952
  0.1021865805692259  0.8750293099345213  0.0866523527610489
  0.6224736138680927  0.8938331912106633  0.0757392827362558
  0.4533431011952823  0.6898187084830044  0.9084555130238829
  0.9451356529885961  0.6571818817740468  0.9254747768220857
  0.3843814640638847  0.6525987626522891  0.4293632749492787
  0.8845813108918369  0.6654437043611592  0.4204024596267579
  0.1718514477191933  0.2307542160834238  0.9217271233043030
  0.6641743536271703  0.2259014959653335  0.9143270990520588
  0.1581064079890484  0.1068955794949527  0.4126089631635569
  0.6721420107364385  0.1197963381996441  0.4252838074449400
  0.3976908875864991  0.1216345029638215  0.9113438874311206
  0.8888686281786821  0.1116000036899097  0.9211013143655855
  0.4330227150866510  0.2219620691122366  0.4269644410637266
  0.9439482339450346  0.2289031911593717  0.4213987608345510
 
  0.00000000E+00  0.00000000E+00  0.00000000E+00
  0.00000000E+00  0.00000000E+00  0.00000000E+00
  0.00000000E+00  0.00000000E+00  0.00000000E+00
  0.00000000E+00  0.00000000E+00  0.00000000E+00
  0.00000000E+00  0.00000000E+00  0.00000000E+00
  0.00000000E+00  0.00000000E+00  0.00000000E+00
  0.00000000E+00  0.00000000E+00  0.00000000E+00
  0.00000000E+00  0.00000000E+00  0.00000000E+00
  0.00000000E+00  0.00000000E+00  0.00000000E+00
  0.00000000E+00  0.00000000E+00  0.00000000E+00
  0.00000000E+00  0.00000000E+00  0.00000000E+00
  0.00000000E+00  0.00000000E+00  0.00000000E+00
  0.00000000E+00  0.00000000E+00  0.00000000E+00
  0.00000000E+00  0.00000000E+00  0.00000000E+00
  0.00000000E+00  0.00000000E+00  0.00000000E+00
  0.00000000E+00  0.00000000E+00  0.00000000E+00
  0.00000000E+00  0.00000000E+00  0.00000000E+00
  0.00000000E+00  0.00000000E+00  0.00000000E+00
  0.00000000E+00  0.00000000E+00  0.00000000E+00
  0.00000000E+00  0.00000000E+00  0.00000000E+00
  0.00000000E+00  0.00000000E+00  0.00000000E+00
  0.00000000E+00  0.00000000E+00  0.00000000E+00
  0.00000000E+00  0.00000000E+00  0.00000000E+00
  0.00000000E+00  0.00000000E+00  0.00000000E+00
  0.00000000E+00  0.00000000E+00  0.00000000E+00
  0.00000000E+00  0.00000000E+00  0.00000000E+00
  0.00000000E+00  0.00000000E+00  0.00000000E+00
  0.00000000E+00  0.00000000E+00  0.00000000E+00
  0.00000000E+00  0.00000000E+00  0.00000000E+00
  0.00000000E+00  0.00000000E+00  0.00000000E+00
  0.00000000E+00  0.00000000E+00  0.00000000E+00
  0.00000000E+00  0.00000000E+00  0.00000000E+00
  0.00000000E+00  0.00000000E+00  0.00000000E+00
  0.00000000E+00  0.00000000E+00  0.00000000E+00
  0.00000000E+00  0.00000000E+00  0.00000000E+00
  0.00000000E+00  0.00000000E+00  0.00000000E+00
  0.00000000E+00  0.00000000E+00  0.00000000E+00
  0.00000000E+00  0.00000000E+00  0.00000000E+00
  0.00000000E+00  0.00000000E+00  0.00000000E+00
  0.00000000E+00  0.00000000E+00  0.00000000E+00
  0.00000000E+00  0.00000000E+00  0.00000000E+00
  0.00000000E+00  0.00000000E+00  0.00000000E+00
  0.00000000E+00  0.00000000E+00  0.00000000E+00
  0.00000000E+00  0.00000000E+00  0.00000000E+00
  0.00000000E+00  0.00000000E+00  0.00000000E+00
  0.00000000E+00  0.00000000E+00  0.00000000E+00
  0.00000000E+00  0.00000000E+00  0.00000000E+00
  0.00000000E+00  0.00000000E+00  0.00000000E+00
  0.00000000E+00  0.00000000E+00  0.00000000E+00
  0.00000000E+00  0.00000000E+00  0.00000000E+00
  0.00000000E+00  0.00000000E+00  0.00000000E+00
  0.00000000E+00  0.00000000E+00  0.00000000E+00
  0.00000000E+00  0.00000000E+00  0.00000000E+00
  0.00000000E+00  0.00000000E+00  0.00000000E+00
  0.00000000E+00  0.00000000E+00  0.00000000E+00
  0.00000000E+00  0.00000000E+00  0.00000000E+00
  0.00000000E+00  0.00000000E+00  0.00000000E+00
  0.00000000E+00  0.00000000E+00  0.00000000E+00
