La   Li   Ti   O                        
   1.00000000000000     
    10.9481601714999996    0.0000000000000000    0.0000000000000000
    -2.7370406741000002    4.7406920522000000    0.0000000000000000
     0.0000000000000000    0.0000000000000000   13.4090003966999998
   La   Li   Ti   O 
     7     3    12    36
Direct
  0.3350172905248888  0.3394144940218501  0.5944757350312174
  0.8339679101688476  0.3423905207545922  0.5902819788173543
  0.1789048655478513  0.6916408971590854  0.9171087857568353
  0.6692942774934159  0.6725101814665235  0.9220532708329678
  0.1674098822804525  0.6791767624739393  0.4165166100346372
  0.6628044457532654  0.6694717010267521  0.4160967610768052
  0.0074856181724683  0.0105433622427885  0.2444234880824454
  0.5188931978673631  0.0289359379502896  0.8005365010954798
  0.4447498069737404  0.1770044953957681  0.1890658560010232
  0.9019293540884045  0.4728343014357377  0.0686637781461902
  0.0083701458803387  0.0266352223463494  0.9985692483975972
  0.5109981269662516  0.0185420411750249  0.0089919364194701
  0.0004942311459483  0.0118016947004726  0.5052306852749467
  0.5006491699464528  0.0092258341049983  0.5052375261639870
  0.3401131463122697  0.3619841252621255  0.3289174542840231
  0.8230307802765415  0.3381802340370519  0.3253057494979527
  0.3402978010616036  0.3475309248621821  0.8381100759926126
  0.8405418015140064  0.3461277406048557  0.8365066409769841
  0.1678698724010725  0.6760710825886398  0.6763574879790051
  0.6692840623405298  0.6762145188486468  0.6779792439247666
  0.1807207896788862  0.6897826224754366  0.1627235871199040
  0.6729407342766813  0.6939735100139727  0.1631003539624242
  0.2692813478063211  0.0040732496863929  0.2535218681701875
  0.7813648284556529  0.9919905153937073  0.2588852586820784
  0.2238353442927882  0.9985294407512649  0.7528857950234763
  0.7135618160956239  0.9958853265068581  0.7554617732341529
  0.0014077091183199  0.5624216814357609  0.2584368687822363
  0.5051422224076922  0.5500774964759775  0.2568454415596211
  0.9948465341691319  0.4518237697390447  0.7480314520545237
  0.4967834415921985  0.4322750239748161  0.7463394528542741
  0.2173275232336857  0.4621490240181796  0.2601863456350608
  0.7191417616273305  0.4575774069105689  0.2575734240462448
  0.2763421739018773  0.5559736009902529  0.7506526959294048
  0.7725218194561224  0.5484025087961930  0.7518173180874012
  0.1173675595391909  0.3492201288886568  0.5772699472584885
  0.6153604594885567  0.3511443203964986  0.5779222262264567
  0.0505002660316871  0.3360037331275956  0.0873642872602244
  0.5626533231888566  0.3501688097661692  0.0810746964214537
  0.3290552972695849  0.8883714671599366  0.5821787700075880
  0.8279286676147883  0.8908472057808456  0.5808645422288089
  0.3298127386325390  0.7924220081075545  0.0755356934746627
  0.8362708255428486  0.7704686936725534  0.0894828573349684
  0.0598837917059997  0.7741522230068661  0.5751089818826630
  0.5576357831427908  0.7773965864866393  0.5813246328434638
  0.0998489494422901  0.8730056733121702  0.0875069440447513
  0.6217865364364223  0.8959457128448353  0.0755928322751115
  0.4524494576021791  0.6903623532084087  0.9076302220408914
  0.9457793639431270  0.6567700707662829  0.9259041765335759
  0.3849176272024695  0.6528288677856222  0.4279863912179761
  0.8837746218611462  0.6648454511176508  0.4199615032237333
  0.1715823489405728  0.2305397380791394  0.9218118357157303
  0.6650814152662053  0.2295682287630416  0.9141475778896346
  0.1575314405588849  0.1074524384013270  0.4121976811769574
  0.6718464210152669  0.1192213398051493  0.4257106563873120
  0.3981355008280010  0.1213916137243940  0.9110531240182883
  0.8882163883349768  0.1106330901190529  0.9208823349508345
  0.4336232583264037  0.2212851890510446  0.4263870616257199
  0.9435969720724849  0.2281232507089812  0.4211480221134985
 
  0.00000000E+00  0.00000000E+00  0.00000000E+00
  0.00000000E+00  0.00000000E+00  0.00000000E+00
  0.00000000E+00  0.00000000E+00  0.00000000E+00
  0.00000000E+00  0.00000000E+00  0.00000000E+00
  0.00000000E+00  0.00000000E+00  0.00000000E+00
  0.00000000E+00  0.00000000E+00  0.00000000E+00
  0.00000000E+00  0.00000000E+00  0.00000000E+00
  0.00000000E+00  0.00000000E+00  0.00000000E+00
  0.00000000E+00  0.00000000E+00  0.00000000E+00
  0.00000000E+00  0.00000000E+00  0.00000000E+00
  0.00000000E+00  0.00000000E+00  0.00000000E+00
  0.00000000E+00  0.00000000E+00  0.00000000E+00
  0.00000000E+00  0.00000000E+00  0.00000000E+00
  0.00000000E+00  0.00000000E+00  0.00000000E+00
  0.00000000E+00  0.00000000E+00  0.00000000E+00
  0.00000000E+00  0.00000000E+00  0.00000000E+00
  0.00000000E+00  0.00000000E+00  0.00000000E+00
  0.00000000E+00  0.00000000E+00  0.00000000E+00
  0.00000000E+00  0.00000000E+00  0.00000000E+00
  0.00000000E+00  0.00000000E+00  0.00000000E+00
  0.00000000E+00  0.00000000E+00  0.00000000E+00
  0.00000000E+00  0.00000000E+00  0.00000000E+00
  0.00000000E+00  0.00000000E+00  0.00000000E+00
  0.00000000E+00  0.00000000E+00  0.00000000E+00
  0.00000000E+00  0.00000000E+00  0.00000000E+00
  0.00000000E+00  0.00000000E+00  0.00000000E+00
  0.00000000E+00  0.00000000E+00  0.00000000E+00
  0.00000000E+00  0.00000000E+00  0.00000000E+00
  0.00000000E+00  0.00000000E+00  0.00000000E+00
  0.00000000E+00  0.00000000E+00  0.00000000E+00
  0.00000000E+00  0.00000000E+00  0.00000000E+00
  0.00000000E+00  0.00000000E+00  0.00000000E+00
  0.00000000E+00  0.00000000E+00  0.00000000E+00
  0.00000000E+00  0.00000000E+00  0.00000000E+00
  0.00000000E+00  0.00000000E+00  0.00000000E+00
  0.00000000E+00  0.00000000E+00  0.00000000E+00
  0.00000000E+00  0.00000000E+00  0.00000000E+00
  0.00000000E+00  0.00000000E+00  0.00000000E+00
  0.00000000E+00  0.00000000E+00  0.00000000E+00
  0.00000000E+00  0.00000000E+00  0.00000000E+00
  0.00000000E+00  0.00000000E+00  0.00000000E+00
  0.00000000E+00  0.00000000E+00  0.00000000E+00
  0.00000000E+00  0.00000000E+00  0.00000000E+00
  0.00000000E+00  0.00000000E+00  0.00000000E+00
  0.00000000E+00  0.00000000E+00  0.00000000E+00
  0.00000000E+00  0.00000000E+00  0.00000000E+00
  0.00000000E+00  0.00000000E+00  0.00000000E+00
  0.00000000E+00  0.00000000E+00  0.00000000E+00
  0.00000000E+00  0.00000000E+00  0.00000000E+00
  0.00000000E+00  0.00000000E+00  0.00000000E+00
  0.00000000E+00  0.00000000E+00  0.00000000E+00
  0.00000000E+00  0.00000000E+00  0.00000000E+00
  0.00000000E+00  0.00000000E+00  0.00000000E+00
  0.00000000E+00  0.00000000E+00  0.00000000E+00
  0.00000000E+00  0.00000000E+00  0.00000000E+00
  0.00000000E+00  0.00000000E+00  0.00000000E+00
  0.00000000E+00  0.00000000E+00  0.00000000E+00
  0.00000000E+00  0.00000000E+00  0.00000000E+00
