La   Li   Ti   O                        
   1.00000000000000     
     7.8586303803313999    0.0000514230523997   -0.1376059729438770
     0.0000510894174330    7.6905721352157803    0.0000181625204806
    -0.1379224693673280    0.0000185689576894    7.7351728649375699
   La   Li   Ti   O 
     4     4     8    24
Direct
  0.0029739169910162  0.0030618425054170  0.4913810252331000
  0.9773282991686423  0.5105599757478240  0.0026095372718074
  0.9944993771060076  0.5078206445632784  0.5076833233722849
  0.4807464996646165  0.5044618717586438  0.5155445566307643
  0.9158831987930922  0.0069454223582457  0.0390028413233986
  0.5209929474168616  0.1053729466866446  0.0199821816708291
  0.4347840373967132  0.0079669494131830  0.5513813614664064
  0.4164177937260898  0.5410960902711811  0.0392552339076900
  0.2440391389862285  0.2483244671509546  0.2427275742529871
  0.2565121195819003  0.2522153355051120  0.7699424955676298
  0.2487097737755781  0.7775718799188234  0.2476797595623963
  0.2586691662935120  0.7639149136452206  0.7687631706473624
  0.7333097843553179  0.2577447814387268  0.2483637440970968
  0.7408232546353622  0.2442784956348106  0.7499418526125858
  0.7235915983192638  0.7637813663927343  0.2393923940646577
  0.7377101024718460  0.7685112064536923  0.7488100817018960
  0.2992449760642690  0.2082112584900866  0.0014620505678622
  0.0105829848512736  0.2073607637118269  0.2144320184438969
  0.2896787179471855  0.0047852212211169  0.3197776542717909
  0.2310575681222829  0.2989308946099883  0.4963048558927982
  0.0201469312598156  0.2975867222364924  0.7686120849640098
  0.2311065538374462  0.0039872084036219  0.7045270735361904
  0.2900068369262840  0.7827484804388928  0.0018423096361638
  0.0116004373484039  0.7994983089154375  0.2192251865353828
  0.2164252195840316  0.4982054127003910  0.2045438791046728
  0.2336862577631000  0.7066740836369403  0.4937463849057575
  0.0201469527062690  0.7132968162371088  0.7598072697746399
  0.3109080952901186  0.5024051883460018  0.7884297006847800
  0.7358958078609090  0.2750555309817899  0.9896824700350173
  0.5073186684356752  0.2961863074954173  0.2699084715045569
  0.7140712441567112  0.0058675659064120  0.2076097104675964
  0.7990776374874691  0.2369855007651568  0.4892112753909531
  0.5126019326976696  0.2159046735342730  0.7015029991692229
  0.8125435171114073  0.0043578421526493  0.7649141572214802
  0.7447234866495575  0.7269187686359192  0.9881541490413969
  0.5025870884941470  0.7004702187594972  0.2644980600647363
  0.8010942837329584  0.5035980424895729  0.2581195933556534
  0.7914861433465280  0.7727833956106529  0.4850919420202334
  0.5099988283525086  0.7896157229362519  0.6969852181324707
  0.7400163756058934  0.5041388011443779  0.7072277276524030
 
  0.00000000E+00  0.00000000E+00  0.00000000E+00
  0.00000000E+00  0.00000000E+00  0.00000000E+00
  0.00000000E+00  0.00000000E+00  0.00000000E+00
  0.00000000E+00  0.00000000E+00  0.00000000E+00
  0.00000000E+00  0.00000000E+00  0.00000000E+00
  0.00000000E+00  0.00000000E+00  0.00000000E+00
  0.00000000E+00  0.00000000E+00  0.00000000E+00
  0.00000000E+00  0.00000000E+00  0.00000000E+00
  0.00000000E+00  0.00000000E+00  0.00000000E+00
  0.00000000E+00  0.00000000E+00  0.00000000E+00
  0.00000000E+00  0.00000000E+00  0.00000000E+00
  0.00000000E+00  0.00000000E+00  0.00000000E+00
  0.00000000E+00  0.00000000E+00  0.00000000E+00
  0.00000000E+00  0.00000000E+00  0.00000000E+00
  0.00000000E+00  0.00000000E+00  0.00000000E+00
  0.00000000E+00  0.00000000E+00  0.00000000E+00
  0.00000000E+00  0.00000000E+00  0.00000000E+00
  0.00000000E+00  0.00000000E+00  0.00000000E+00
  0.00000000E+00  0.00000000E+00  0.00000000E+00
  0.00000000E+00  0.00000000E+00  0.00000000E+00
  0.00000000E+00  0.00000000E+00  0.00000000E+00
  0.00000000E+00  0.00000000E+00  0.00000000E+00
  0.00000000E+00  0.00000000E+00  0.00000000E+00
  0.00000000E+00  0.00000000E+00  0.00000000E+00
  0.00000000E+00  0.00000000E+00  0.00000000E+00
  0.00000000E+00  0.00000000E+00  0.00000000E+00
  0.00000000E+00  0.00000000E+00  0.00000000E+00
  0.00000000E+00  0.00000000E+00  0.00000000E+00
  0.00000000E+00  0.00000000E+00  0.00000000E+00
  0.00000000E+00  0.00000000E+00  0.00000000E+00
  0.00000000E+00  0.00000000E+00  0.00000000E+00
  0.00000000E+00  0.00000000E+00  0.00000000E+00
  0.00000000E+00  0.00000000E+00  0.00000000E+00
  0.00000000E+00  0.00000000E+00  0.00000000E+00
  0.00000000E+00  0.00000000E+00  0.00000000E+00
  0.00000000E+00  0.00000000E+00  0.00000000E+00
  0.00000000E+00  0.00000000E+00  0.00000000E+00
  0.00000000E+00  0.00000000E+00  0.00000000E+00
  0.00000000E+00  0.00000000E+00  0.00000000E+00
  0.00000000E+00  0.00000000E+00  0.00000000E+00
