Ca8 Ti8 O23                             
   1.00000000000000     
     7.8785600000000002    0.0000830000000000    0.0061560000000000
    -0.0000490000000000    7.8741810000000001    0.0000520000000000
     0.0062680000000000   -0.0000960000000000    7.8786889999999996
   Ca   Ti   O 
     8     8    23
Direct
  0.0277999999999992  0.9851650000000021  0.9770019999999988
  0.0182670000000016  0.9881310000000028  0.4943310000000025
  0.9823019999999971  0.5106979999999979  0.0081369999999978
  0.9914980000000000  0.4952100000000002  0.5456369999999993
  0.5064720000000023  0.9973969999999994  0.9806689999999989
  0.5089949999999988  0.9924000000000035  0.4996030000000005
  0.4789990000000017  0.5231759999999994  0.0083500000000001
  0.4738460000000018  0.5201009999999968  0.5386179999999996
  0.2251270000000005  0.2446210000000022  0.2410029999999992
  0.2553910000000030  0.2507609999999971  0.7486630000000005
  0.2476089999999971  0.7531970000000001  0.2572919999999996
  0.2473949999999974  0.7516829999999999  0.7543289999999985
  0.7698699999999974  0.2482889999999998  0.2659570000000002
  0.7500029999999995  0.2569840000000028  0.7724130000000002
  0.7476380000000020  0.7303190000000015  0.2635679999999994
  0.7471180000000004  0.7563990000000018  0.7561830000000000
  0.6270549999999986  0.0699550000000002  0.2382690000000025
  0.2932830000000024  0.2079889999999978  0.0090679999999992
  0.9945659999999990  0.1952059999999989  0.2032859999999985
  0.2661009999999990  0.9966719999999967  0.3013109999999983
  0.2321049999999971  0.2870390000000000  0.4951190000000025
  0.0049520000000030  0.2920999999999978  0.7879840000000016
  0.2118150000000014  0.0016579999999990  0.7254849999999990
  0.2824480000000023  0.7846499999999992  0.0053950000000000
  0.9917250000000024  0.7823040000000034  0.2174300000000002
  0.2297989999999999  0.4876890000000031  0.2050920000000005
  0.2095789999999980  0.7112630000000024  0.5048869999999965
  0.9970619999999997  0.7222119999999990  0.7898160000000018
  0.2889759999999981  0.5015059999999991  0.7795289999999966
  0.7180400000000020  0.3179390000000026  0.0032870000000003
  0.7998789999999971  0.2233609999999970  0.5000950000000017
  0.5045920000000024  0.2194179999999974  0.7184730000000030
  0.7748339999999985  0.0102919999999997  0.8065070000000034
  0.7094110000000029  0.7281419999999983  0.0111350000000030
  0.4969999999999999  0.7124120000000005  0.2946870000000033
  0.7844389999999990  0.5006360000000001  0.2950560000000024
  0.7762189999999975  0.8081559999999968  0.5001970000000000
  0.4975639999999970  0.7830730000000017  0.7204610000000002
  0.7258920000000018  0.5123970000000000  0.7088049999999981
 
  0.00000000E+00  0.00000000E+00  0.00000000E+00
  0.00000000E+00  0.00000000E+00  0.00000000E+00
  0.00000000E+00  0.00000000E+00  0.00000000E+00
  0.00000000E+00  0.00000000E+00  0.00000000E+00
  0.00000000E+00  0.00000000E+00  0.00000000E+00
  0.00000000E+00  0.00000000E+00  0.00000000E+00
  0.00000000E+00  0.00000000E+00  0.00000000E+00
  0.00000000E+00  0.00000000E+00  0.00000000E+00
  0.00000000E+00  0.00000000E+00  0.00000000E+00
  0.00000000E+00  0.00000000E+00  0.00000000E+00
  0.00000000E+00  0.00000000E+00  0.00000000E+00
  0.00000000E+00  0.00000000E+00  0.00000000E+00
  0.00000000E+00  0.00000000E+00  0.00000000E+00
  0.00000000E+00  0.00000000E+00  0.00000000E+00
  0.00000000E+00  0.00000000E+00  0.00000000E+00
  0.00000000E+00  0.00000000E+00  0.00000000E+00
  0.00000000E+00  0.00000000E+00  0.00000000E+00
  0.00000000E+00  0.00000000E+00  0.00000000E+00
  0.00000000E+00  0.00000000E+00  0.00000000E+00
  0.00000000E+00  0.00000000E+00  0.00000000E+00
  0.00000000E+00  0.00000000E+00  0.00000000E+00
  0.00000000E+00  0.00000000E+00  0.00000000E+00
  0.00000000E+00  0.00000000E+00  0.00000000E+00
  0.00000000E+00  0.00000000E+00  0.00000000E+00
  0.00000000E+00  0.00000000E+00  0.00000000E+00
  0.00000000E+00  0.00000000E+00  0.00000000E+00
  0.00000000E+00  0.00000000E+00  0.00000000E+00
  0.00000000E+00  0.00000000E+00  0.00000000E+00
  0.00000000E+00  0.00000000E+00  0.00000000E+00
  0.00000000E+00  0.00000000E+00  0.00000000E+00
  0.00000000E+00  0.00000000E+00  0.00000000E+00
  0.00000000E+00  0.00000000E+00  0.00000000E+00
  0.00000000E+00  0.00000000E+00  0.00000000E+00
  0.00000000E+00  0.00000000E+00  0.00000000E+00
  0.00000000E+00  0.00000000E+00  0.00000000E+00
  0.00000000E+00  0.00000000E+00  0.00000000E+00
  0.00000000E+00  0.00000000E+00  0.00000000E+00
  0.00000000E+00  0.00000000E+00  0.00000000E+00
  0.00000000E+00  0.00000000E+00  0.00000000E+00
