Ca8 Ti8 O23
1.0
7.878560 0.000083 0.006156
-0.000049 7.874181 0.000052
0.006268 -0.000096 7.878689
Ca Ti O
8 8 23
direct
0.020064 0.985127 0.979807 Ca
0.016706 0.979968 0.496949 Ca
0.978117 0.502682 0.016245 Ca
0.985157 0.498186 0.540469 Ca
0.514917 0.996725 0.987736 Ca
0.525145 0.987247 0.498144 Ca
0.480509 0.510453 0.018367 Ca
0.474781 0.510954 0.537568 Ca
0.233146 0.242285 0.259236 Ti
0.254862 0.249008 0.765747 Ti
0.246037 0.740866 0.255259 Ti
0.250792 0.751929 0.758649 Ti
0.770672 0.235448 0.257396 Ti
0.745772 0.252131 0.766547 Ti
0.748864 0.736115 0.261903 Ti
0.748350 0.748706 0.760384 Ti
0.691079 0.012657 0.228830 O
0.299429 0.217144 0.000831 O
0.001007 0.211499 0.193918 O
0.283571 0.010485 0.300033 O
0.221046 0.298632 0.490597 O
0.000640 0.288356 0.788591 O
0.207434 0.002446 0.727619 O
0.287958 0.790650 0.003782 O
0.000189 0.790568 0.218034 O
0.227527 0.502611 0.202178 O
0.209870 0.716496 0.502685 O
0.999330 0.717877 0.792593 O
0.290884 0.502373 0.780893 O
0.703012 0.292452 0.002295 O
0.790784 0.214718 0.493663 O
0.500744 0.217228 0.706607 O
0.773236 0.002612 0.797373 O
0.712395 0.716750 0.004711 O
0.501260 0.708151 0.294250 O
0.795463 0.500092 0.280102 O
0.784983 0.788885 0.503111 O
0.499132 0.781829 0.717193 O
0.724694 0.501944 0.710596 O

0.000000 0.000000 0.000000
0.000000 0.000000 0.000000
0.000000 0.000000 0.000000
0.000000 0.000000 0.000000
0.000000 0.000000 0.000000
0.000000 0.000000 0.000000
0.000000 0.000000 0.000000
0.000000 0.000000 0.000000
0.000000 0.000000 0.000000
0.000000 0.000000 0.000000
0.000000 0.000000 0.000000
0.000000 0.000000 0.000000
0.000000 0.000000 0.000000
0.000000 0.000000 0.000000
0.000000 0.000000 0.000000
0.000000 0.000000 0.000000
0.000000 0.000000 0.000000
0.000000 0.000000 0.000000
0.000000 0.000000 0.000000
0.000000 0.000000 0.000000
0.000000 0.000000 0.000000
0.000000 0.000000 0.000000
0.000000 0.000000 0.000000
0.000000 0.000000 0.000000
0.000000 0.000000 0.000000
0.000000 0.000000 0.000000
0.000000 0.000000 0.000000
0.000000 0.000000 0.000000
0.000000 0.000000 0.000000
0.000000 0.000000 0.000000
0.000000 0.000000 0.000000
0.000000 0.000000 0.000000
0.000000 0.000000 0.000000
0.000000 0.000000 0.000000
0.000000 0.000000 0.000000
0.000000 0.000000 0.000000
0.000000 0.000000 0.000000
0.000000 0.000000 0.000000
0.000000 0.000000 0.000000
