La   Li   Ti   O 
   1.00000000000000     
   7.8586303803313999   0.0000514230523997  -0.1376059729438770
   0.0000510894174330   7.6905721352157803   0.0000181625204806
  -0.1379224693673280   0.0000185689576894   7.7351728649375699
La   Li   Ti   O 
4  4  8  24  
Direct
  0.0091235862050363  0.0002248554696722  0.4973821815008600  
  0.9730828206381448  0.5002306496138333  0.0105230741757098  
  0.9903064929554294  0.5002454146951413  0.5171654163276117  
  0.4782337668643571  0.5002401715893748  0.5178674090461767  
  0.9219114330822370  0.0002159606140098  0.0460041527223124  
  0.4515338388778208  0.0002207092964838  0.0908834382621446  
  0.4326454246679892  0.0002138013243965  0.5498598165704599  
  0.5149369784230399  0.5000370642953542  0.9907092319657820  
  0.2415131120485739  0.2430102633079314  0.2489960120337922  
  0.2603304146645550  0.2436852404900736  0.7793705568919088  
  0.2415001212163829  0.7574115372967714  0.2489887620160093  
  0.2603407578583485  0.7567619748635781  0.7793828156041037  
  0.7251628232044312  0.2456107463846116  0.2483457626656374  
  0.7352584987014090  0.2359853956535508  0.7554491484453878  
  0.7251560466978425  0.7548544552660066  0.2483476971665937  
  0.7352494254437500  0.7644732757660659  0.7554604843987586  
  0.3036001220657218  0.2030365831999801  0.0083740944685015  
  0.0071672732333881  0.2049199566695124  0.2111699103971446  
  0.2895627755874395  0.0002478830319680  0.3118493348724782  
  0.2246798335645565  0.2916347462190318  0.4985391461836524  
  0.0228038696786089  0.2925917577369626  0.7763216901348877  
  0.2336668712946590  0.0002400698259055  0.7105133081262108  
  0.3035756972805483  0.7974715389160820  0.0083838801197727  
  0.0071664312947168  0.7955705173010675  0.2111790147631001  
  0.2106983160904157  0.5002535796480519  0.2156019080004407  
  0.2246743676394188  0.7088560438619765  0.4985406716309769  
  0.0228073803719200  0.7078773997805694  0.7763231500213805  
  0.3192595909941903  0.5002373451211086  0.7931770245296120  
  0.7251036865556800  0.2946209905159080  0.9920801061536300  
  0.5032760700784041  0.2919996011743820  0.2803985478700760  
  0.7088446360213344  0.0002437938459797  0.2037845744939140  
  0.7987560817035910  0.2261407897429261  0.4925221817513629  
  0.5104594920406907  0.2144330936024999  0.6958711886483804  
  0.8107316970337533  0.0002385163192552  0.7820912638857218  
  0.7251363662456192  0.7058807611511650  0.9920884931554760  
  0.5032709665853217  0.7085119862630136  0.2804210797616812  
  0.7951470805294638  0.5002433611972035  0.2704300510072665  
  0.7987565720182801  0.7743356340794942  0.4925225803102645  
  0.5104558453966241  0.7860411253653473  0.6958741416187437  
  0.7370574351462993  0.5002424095037521  0.7066636983020615  
