La   Li   Ti   O                        
   1.00000000000000     
    10.9481601714999996    0.0000000000000000    0.0000000000000000
    -2.7370406741000002    4.7406920522000000    0.0000000000000000
     0.0000000000000000    0.0000000000000000   13.4090003966999998
   La   Li   Ti   O 
     7     3    12    36
Direct
  0.3353664404460653  0.3395024337882095  0.5925874274506233
  0.8322385054426249  0.3388402265980862  0.5890250880767108
  0.1758006080255329  0.6844166897515693  0.9168299457419229
  0.6722524540146820  0.6796055815389909  0.9218079175125025
  0.1694135351965263  0.6745811195295923  0.4157495073881641
  0.6632563345820981  0.6672477804837569  0.4162696941445899
  0.0065001080759045  0.0075724730911854  0.2448455195473159
  0.5104906193991758  0.0142020965573608  0.8031420518969005
  0.4028332632493906  0.4905854919499468  0.1048679961396131
  0.9016082657736603  0.4639041857728638  0.0671655080604703
  0.0079960096530417  0.0249782330561200 -0.0014325277946330
  0.5125650602859100  0.0266182338123397  0.0131949524287675
  0.0015321396001932  0.0085394473331603  0.5054577768233901
  0.4997786420035780  0.0022218952184873  0.5025643928172613
  0.3440478318936819  0.3504060189643477  0.3249902554458124
  0.8249116746084869  0.3316080392468058  0.3250812140935583
  0.3407743848735557  0.3437282233764758  0.8377982872376823
  0.8401268763056949  0.3472515451303140  0.8354181086020049
  0.1687020640588473  0.6765275705250070  0.6764419856085978
  0.6685396689579898  0.6736672783940598  0.6770144277363768
  0.1848208656436677  0.6940075367345941  0.1632369839409254
  0.6715371601854798  0.6685136336804590  0.1655880500345980
  0.2614890720795379 -0.0000460332720941  0.2528081872328750
  0.7785750579471582  0.9871964166170385  0.2581298393033474
  0.2231085253981415  0.0020664985399765  0.7504873738255108
  0.7144216759904433  0.9933072369722173  0.7562372573797324
 -0.0008244022638235  0.5542361711190456  0.2562470121233108
  0.5009091245497596  0.5573134846923566  0.2513482466316283
  0.9957980209417927  0.4520370807115992  0.7490204512609164
  0.4964874359551318  0.4320102636067254  0.7463310261392233
  0.2182356757556632  0.4585526908147855  0.2585955259823794
  0.7208805825833178  0.4599550299470258  0.2579269882634684
  0.2792363177979758  0.5640896997773085  0.7518704132127090
  0.7717883737905107  0.5447552359009564  0.7505584635670373
  0.1160505612136002  0.3468321406748446  0.5782911876227259
  0.6134662934657797  0.3520720969831018  0.5760271712914595
  0.0489095313502690  0.3277020531551176  0.0885975735069014
  0.5467314855792049  0.3562073594745440  0.0769066698590893
  0.3275689796723567  0.8882023465524181  0.5797567810010236
  0.8262704407728810  0.8896506526326908  0.5796179281423961
  0.3274928790168497  0.7524594400555985  0.0742328980858275
  0.8323421024355024  0.7584071549966066  0.0870313426956535
  0.0576884143878509  0.7705302094902158  0.5752978981055241
  0.5574875268831730  0.7813764543072769  0.5822604899826244
  0.1036059100786775  0.8700996388562838  0.0850316373839123
  0.6133971647023466  0.8867826655992985  0.0798168648754654
  0.4519563951625113  0.6786463109324358  0.9115308786285918
  0.9430735924960201  0.6560556612368496  0.9244830943380241
  0.3865864873150963  0.6509803880961564  0.4266709849605250
  0.8841169329004068  0.6665454242240004  0.4189388263860964
  0.1717605248276862  0.2279952305392942  0.9221776426743649
  0.6629832091507435  0.2280272728584971  0.9171407420477811
  0.1577534312888484  0.1082030829546922  0.4140221510998711
  0.6718967464260175  0.1187261361303354  0.4254347271609604
  0.3926063438501633  0.1074516850158656  0.9108395788930191
  0.8895617453305349  0.1161022331101691  0.9216418525883474
  0.4339463498684493  0.2200085754816978  0.4230271213459971
  0.9429323620236575  0.2291869196813165  0.4205375164685429

