La   Li   Ti   O                        
1.0
       10.9481601715         0.0000000000         0.0000000000
       -2.7370406741         4.7406920522         0.0000000000
        0.0000000000         0.0000000000        13.4090003967
   La   Li   Ti    O
    7    3   12   36
Cartesian
     2.742413521         1.609476447         7.946004868
     8.184061050         1.606337190         7.898237705
     0.051416792         3.244608879        12.293772697
     5.499819279         3.221801043        12.360523224
     0.008410494         3.197981358         5.574785709
     5.435152531         3.163216352         5.581760406
     0.050438061         0.035898764         3.283133745
     5.550061226         0.067327768        10.769331932
     3.067530632         2.325714827         1.406175017
     8.601226807         2.199226856         0.900622308
     0.019175151         0.118414119        13.389791489
     5.538789749         0.126188844         0.176931113
    -0.006598705         0.040482894         6.777683258
     5.465574741         0.010533321         6.738885880
     2.807615519         1.661167026         4.357794285
     8.123641014         1.572051525         4.359014034
     2.790054560         1.629509687        11.234037399
     8.247402191         1.646212578        11.202121735
    -0.004706271         3.207208872         9.070410728
     5.475424290         3.193649054         9.078086853
     0.123921610         3.290076017         2.188844919
     5.522347450         3.169217348         2.220370293
     0.125909388         4.740474224         3.389904976
     5.821968079         4.679994583         3.461263180
     2.436971903         0.009796633        10.063285828
     5.102880955         4.708963871        10.140385628
     9.422167778         2.627463102         3.436016321
     3.958643913         2.642051697         3.370328903
     9.664912224         2.142968655        10.043615341
     4.253194332         2.048027754        10.007553101
     1.134201765         2.173857212         3.467507601
     6.633399963         2.180505276         3.458543301
     1.513187408         2.674175739        10.081830025
     6.958644867         2.582516909        10.064238548
     0.321246445         1.644224286         7.754306793
     5.752692223         1.669065356         7.723948479
    -0.361464500         1.553534508         1.188004851
     5.010749817         1.688669443         1.031241536
     1.155231595         4.210693836         7.773959160
     6.611131668         4.217559814         7.772097111
     1.525932431         3.567178726         0.995388985
     7.036823273         3.595374823         1.167003274
    -1.477390647         3.652846575         7.714169502
     3.964803934         3.704265356         7.807531357
    -1.247204065         4.124874592         1.140189290
     4.288410187         4.203963757         1.070264339
     3.090608358         3.217253208        12.222717285
     8.529269218         3.110157967        12.396394730
     2.450650930         3.086097717         5.721231461
     7.855091572         3.159886837         5.617550850
     1.256429553         1.080855250        12.365480423
     6.634326935         1.081007123        12.297940254
     1.430953622         0.512957513         5.551623344
     7.031075001         0.562844038         5.704654694
     4.004217148         0.509395361        12.213447571
     9.421288490         0.550404966        12.358295441
     4.148741722         1.042992949         5.672370911
     9.696081161         1.086504698         5.638987541
