La   Li   Ti   O                        
1.0
       10.9481601715         0.0000000000         0.0000000000
       -2.7370406741         4.7406920522         0.0000000000
        0.0000000000         0.0000000000        13.4090003967
   La   Li   Ti    O He
    7    3   12   36 6003
Cartesian
     2.742413521         1.609476447         7.946004868
     8.184061050         1.606337190         7.898237705
     0.051416792         3.244608879        12.293772697
     5.499819279         3.221801043        12.360523224
     0.008410494         3.197981358         5.574785709
     5.435152531         3.163216352         5.581760406
     0.050438061         0.035898764         3.283133745
     5.550061226         0.067327768        10.769331932
     3.067530632         2.325714827         1.406175017
     8.601226807         2.199226856         0.900622308
     0.019175151         0.118414119        13.389791489
     5.538789749         0.126188844         0.176931113
    -0.006598705         0.040482894         6.777683258
     5.465574741         0.010533321         6.738885880
     2.807615519         1.661167026         4.357794285
     8.123641014         1.572051525         4.359014034
     2.790054560         1.629509687        11.234037399
     8.247402191         1.646212578        11.202121735
    -0.004706271         3.207208872         9.070410728
     5.475424290         3.193649054         9.078086853
     0.123921610         3.290076017         2.188844919
     5.522347450         3.169217348         2.220370293
     0.125909388         4.740474224         3.389904976
     5.821968079         4.679994583         3.461263180
     2.436971903         0.009796633        10.063285828
     5.102880955         4.708963871        10.140385628
     9.422167778         2.627463102         3.436016321
     3.958643913         2.642051697         3.370328903
     9.664912224         2.142968655        10.043615341
     4.253194332         2.048027754        10.007553101
     1.134201765         2.173857212         3.467507601
     6.633399963         2.180505276         3.458543301
     1.513187408         2.674175739        10.081830025
     6.958644867         2.582516909        10.064238548
     0.321246445         1.644224286         7.754306793
     5.752692223         1.669065356         7.723948479
    -0.361464500         1.553534508         1.188004851
     5.010749817         1.688669443         1.031241536
     1.155231595         4.210693836         7.773959160
     6.611131668         4.217559814         7.772097111
     1.525932431         3.567178726         0.995388985
     7.036823273         3.595374823         1.167003274
    -1.477390647         3.652846575         7.714169502
     3.964803934         3.704265356         7.807531357
    -1.247204065         4.124874592         1.140189290
     4.288410187         4.203963757         1.070264339
     3.090608358         3.217253208        12.222717285
     8.529269218         3.110157967        12.396394730
     2.450650930         3.086097717         5.721231461
     7.855091572         3.159886837         5.617550850
     1.256429553         1.080855250        12.365480423
     6.634326935         1.081007123        12.297940254
     1.430953622         0.512957513         5.551623344
     7.031075001         0.562844038         5.704654694
     4.004217148         0.509395361        12.213447571
     9.421288490         0.550404966        12.358295441
     4.148741722         1.042992949         5.672370911
     9.696081161         1.086504698         5.638987541
5.13078 0.0238344 10.6827 He
4.78985 0.619662 2.74253 He
8.54294 1.03504 0.873452 He
2.01081 4.65293 9.89297 He
3.40384 1.07707 0.612109 He
7.2795 1.58209 1.53051 He
5.89043 -0.201587 10.8159 He
3.12266 1.45545 1.49602 He
7.90363 1.5358 0.6251 He
5.30211 0.276122 10.8891 He
3.21157 2.08239 1.40138 He
8.35676 2.14446 0.937162 He
5.78618 0.66876 10.7916 He
2.60535 0.690471 0.880706 He
7.39077 1.71372 1.05871 He
2.1211 4.76686 10.3961 He
3.09083 0.92818 0.740665 He
8.60621 0.950574 0.905795 He
5.2223 0.200672 10.8478 He
3.12453 1.27747 1.59461 He
7.6523 1.62358 0.724164 He
5.22536 0.410525 10.7209 He
3.27477 1.129 1.17667 He
7.81377 1.62673 0.816963 He
2.60606 4.1709 10.3281 He
2.90877 2.41204 1.4091 He
8.05317 2.21672 0.667304 He
5.45063 0.147429 10.8803 He
2.28048 0.682353 1.0671 He
7.30876 1.37741 1.51756 He
2.55679 4.32148 10.4394 He
2.18644 2.77308 1.54566 He
7.93003 0.719237 1.60896 He
2.66742 4.87129 10.6868 He
3.05595 2.45128 1.06555 He
7.91612 1.02981 0.971575 He
5.62079 0.447152 10.9443 He
2.61996 2.10052 0.959368 He
7.22129 1.2469 1.83908 He
2.7755 4.28024 10.8919 He
2.03063 1.84814 0.886479 He
7.30716 1.57135 1.58651 He
5.56019 -0.0445675 10.335 He
3.32015 1.70706 1.29965 He
8.29685 2.19802 0.38861 He
5.70013 0.342547 10.8254 He
3.57573 1.68857 1.42759 He
6.6624 0.93608 2.36796 He
5.05855 0.16333 10.9366 He
3.6562 1.08652 1.55239 He
8.03583 2.38677 1.02622 He
3.03824 4.20242 10.7583 He
3.27171 1.74298 1.65726 He
7.73977 2.2335 0.907972 He
5.70687 0.15766 10.754 He
3.00398 2.25946 1.75787 He
8.45499 1.41218 1.12512 He
2.66875 4.78346 10.6933 He
2.79297 1.77017 0.845845 He
7.92881 1.98559 0.807931 He
5.26532 0.527935 10.8914 He
2.88896 1.69338 1.18978 He
7.77595 1.2444 1.53235 He
5.44438 0.176703 10.8754 He
3.75325 0.729141 1.73383 He
7.81652 1.74498 0.695478 He
3.12727 5.03917 10.5601 He
3.18445 1.67562 0.241985 He
7.77702 1.35644 1.45992 He
5.88138 0.339782 10.8266 He
2.82876 2.28757 1.76849 He
7.67461 1.87527 1.17538 He
5.19738 0.674424 10.676 He
2.62455 2.28343 0.734501 He
7.56491 1.3169 1.35458 He
5.66344 -0.319604 11.0093 He
2.5183 2.07132 0.710233 He
8.0248 1.45948 0.670849 He
5.4004 0.754073 10.6209 He
2.81572 2.85721 1.54733 He
7.34998 1.3971 1.39738 He
2.93121 4.54519 10.5672 He
2.1612 1.94719 0.998209 He
7.46781 1.00588 1.42392 He
5.34401 0.470766 10.7341 He
2.39268 2.16946 0.613777 He
7.75014 1.27643 1.55862 He
2.68484 4.74102 10.7416 He
2.92442 1.86166 1.54202 He
7.55779 1.47465 1.88547 He
2.89898 4.40942 10.3999 He
2.92657 1.45396 1.42017 He
7.572 0.990986 1.37068 He
3.07099 4.50308 10.748 He
3.4126 1.25388 1.4847 He
7.78309 1.25379 1.06007 He
2.74103 4.61781 10.7079 He
2.87768 2.54788 1.44223 He
7.99531 1.57453 0.733063 He
5.42436 0.304005 10.6877 He
4.62832 0.398059 2.70142 He
7.69644 1.02079 1.19412 He
2.36591 4.77433 10.8278 He
2.92832 4.65304 2.99276 He
7.9007 1.8695 0.6701 He
5.27907 0.0251156 10.3077 He
2.41343 2.21604 0.867472 He
5.9725 1.06569 2.45657 He
5.32894 0.59565 10.4767 He
2.62765 1.72307 0.74446 He
5.18013 0.478618 2.85368 He
2.81567 4.75675 10.8553 He
3.27215 1.40898 1.53882 He
7.44276 2.24191 0.714144 He
6.01666 -0.182584 10.6772 He
5.33346 0.745346 2.73884 He
7.38229 1.65437 1.14067 He
6.11214 -0.44887 10.6211 He
2.8943 3.48305 2.41173 He
7.42593 1.12943 1.92745 He
3.13076 4.48323 10.7087 He
2.9659 2.48571 1.48451 He
7.2606 1.60442 1.21577 He
2.87963 4.57882 10.7406 He
3.40203 1.5348 0.553375 He
7.27564 1.28461 1.36819 He
3.14999 4.5944 10.6456 He
3.24885 1.65804 0.695702 He
3.15654 3.87547 2.78986 He
2.30878 4.11068 10.3617 He
2.94913 1.99469 0.470993 He
6.54218 0.576719 2.36689 He
2.30968 4.45758 10.676 He
2.87891 2.00556 0.575791 He
6.64166 0.836142 2.29209 He
1.82483 4.544 10.8332 He
3.68926 1.1359 1.23642 He
7.63246 2.04112 1.86011 He
3.18997 4.66412 10.8772 He
2.07716 2.45368 0.981266 He
7.89172 0.969913 1.54839 He
2.06996 4.39019 10.7445 He
3.02537 2.01029 0.625363 He
7.51799 1.54682 1.41321 He
5.61018 0.459912 10.2939 He
3.68374 1.1203 1.84251 He
8.12405 0.892153 1.10567 He
5.44994 -0.13079 10.9622 He
2.99235 1.43201 1.10693 He
7.94018 1.60971 1.00333 He
2.48554 4.99256 10.892 He
3.23694 0.996013 1.48903 He
8.20711 1.24755 1.45928 He
5.06767 -0.124117 10.3472 He
2.82052 2.68823 1.64071 He
7.52392 1.32991 1.76446 He
1.95987 4.25155 10.6807 He
2.70392 4.19294 2.71757 He
7.70486 1.08042 0.934747 He
5.92004 0.675464 10.4736 He
2.41644 2.155 1.20715 He
7.56136 1.34937 0.807512 He
3.03288 4.70635 10.4428 He
3.24821 2.3476 0.783195 He
7.98838 1.00248 0.656792 He
2.40591 4.52397 10.2701 He
3.11448 1.8272 1.50406 He
7.02928 1.58827 1.31337 He
2.5667 4.52422 10.6205 He
2.62307 2.41594 0.883504 He
8.20724 1.1991 1.20744 He
6.11523 -0.101386 10.801 He
2.8336 1.58715 0.942893 He
8.17397 1.61488 0.901277 He
5.63486 0.299945 10.9069 He
4.37683 0.356291 2.67432 He
7.85251 1.96868 0.786803 He
5.96592 0.263358 10.7799 He
2.77524 1.99164 1.07529 He
7.34222 0.92415 1.58773 He
2.5333 4.41675 10.7678 He
3.12529 2.58024 1.12654 He
8.28103 1.58368 0.956699 He
5.81522 0.237167 10.7761 He
5.16019 0.567387 2.46579 He
8.22447 1.37849 1.16089 He
3.15665 4.14921 10.9049 He
4.07931 0.805783 2.38866 He
8.34097 1.77167 0.741703 He
4.98684 0.196011 10.3671 He
5.49311 -0.286029 2.73355 He
7.49506 1.84653 0.854024 He
2.99471 4.68854 10.9435 He
4.79058 0.532448 2.8431 He
8.47749 1.32817 1.48737 He
5.39697 0.619933 10.7894 He
3.23918 1.75863 1.37249 He
8.11112 1.89434 0.651118 He
5.3383 0.22043 10.8434 He
2.65671 1.88131 0.834034 He
7.73228 1.65116 1.18435 He
2.99449 4.80893 10.3775 He
2.58205 1.50214 0.566564 He
7.53835 1.70816 1.10944 He
5.24803 0.336985 10.8078 He
4.95889 0.594462 2.83132 He
7.68451 1.81132 0.480232 He
6.09003 0.361648 10.5755 He
2.69524 1.91907 0.577355 He
7.81339 1.22352 1.35343 He
2.60375 4.6623 10.5284 He
1.92474 1.80863 0.621972 He
7.57406 1.30386 0.819633 He
2.68063 5.06731 10.7867 He
2.91534 1.26684 1.03294 He
8.11137 1.47258 1.21211 He
5.77332 0.352757 10.3579 He
3.01342 1.47701 0.859026 He
7.6777 1.78531 1.64213 He
5.82688 0.1972 11.0099 He
2.88672 2.2152 1.14611 He
7.88974 0.977697 1.04934 He
2.74027 4.1709 10.811 He
3.43345 1.49629 1.54007 He
8.86055 1.98668 0.629409 He
5.88749 0.715696 10.6478 He
2.53542 1.30935 0.872933 He
7.77732 1.89876 0.867751 He
5.57176 0.0667385 10.8391 He
3.53922 1.32066 1.85351 He
8.07839 1.43577 0.646649 He
5.8061 0.529718 10.9235 He
3.65749 1.74508 1.1467 He
7.64758 2.02329 0.799822 He
5.69368 0.818067 10.6917 He
3.21475 2.18624 0.985615 He
8.16853 1.41175 1.00718 He
2.81256 4.84436 10.6574 He
3.03567 2.60858 1.44706 He
7.69968 1.44566 1.32233 He
5.6424 0.0133108 10.6321 He
3.30537 1.7276 0.994401 He
7.99357 1.66183 1.63943 He
5.70395 0.142826 10.6875 He
2.77322 2.72451 2.08633 He
7.80752 1.19628 0.977391 He
5.82658 0.654878 10.9044 He
3.49794 2.49031 1.12644 He
8.35432 1.41097 1.1172 He
2.23341 4.81788 10.6209 He
3.34832 1.62997 1.80043 He
7.21523 1.85895 1.50075 He
4.90349 0.285738 11.113 He
3.53979 2.06268 0.758171 He
7.57868 1.67783 1.83996 He
2.98822 4.4955 10.3515 He
3.32331 1.55829 1.23128 He
6.08265 -0.338799 2.7585 He
5.48084 0.204828 10.9429 He
2.9065 2.67269 1.39876 He
7.83949 2.17247 1.39784 He
5.55977 -0.0836769 10.7419 He
3.37457 1.82661 1.6074 He
7.48363 2.01172 1.16829 He
4.87641 -0.228161 10.687 He
4.45653 0.368737 2.68979 He
7.60756 1.25601 1.34764 He
5.93695 0.393198 10.5186 He
2.90752 1.36034 0.45442 He
7.63877 1.07484 1.51553 He
5.54668 0.24441 10.8493 He
3.34455 1.62124 1.43338 He
7.88987 0.817704 1.04168 He
3.07542 4.60695 10.7061 He
5.51113 0.756823 2.92776 He
8.17155 1.58305 0.921959 He
2.74284 4.53746 11.0075 He
5.84893 0.582823 2.40347 He
8.76336 1.61745 0.972808 He
4.91669 0.462313 10.5705 He
3.08904 2.52367 1.44018 He
7.50896 1.36162 1.2881 He
2.53269 4.82274 10.9774 He
2.09512 1.58401 0.607396 He
5.60466 0.614059 3.00026 He
2.93709 4.83795 10.4667 He
3.38544 2.45656 1.21089 He
7.53381 1.54297 1.68633 He
5.82047 0.605659 10.6341 He
2.99693 1.88487 0.353561 He
7.85116 1.68036 0.845776 He
2.58716 4.79932 10.9766 He
3.34893 2.03296 0.713665 He
7.58844 1.40048 1.57162 He
5.16474 -0.257055 10.327 He
2.43642 1.36696 0.947451 He
7.46144 1.65087 0.90861 He
4.85496 0.14791 10.954 He
3.78212 1.71082 1.20952 He
7.57717 1.54645 0.749841 He
2.82118 4.68065 10.3866 He
5.13039 0.24513 2.75002 He
7.57675 1.82237 0.47698 He
4.88656 0.184363 10.6539 He
3.66749 1.56584 1.76072 He
7.66768 1.81109 1.71311 He
2.17501 4.63048 10.9841 He
2.7202 2.62898 2.07535 He
8.04235 1.63065 0.639801 He
4.85798 0.282363 10.9805 He
2.5777 0.825307 1.04363 He
6.54693 0.743158 2.2114 He
5.98689 0.258784 10.8728 He
3.757 1.00592 1.75638 He
8.3886 1.94328 0.647275 He
3.23074 5.19313 10.4709 He
3.04085 1.48609 0.582315 He
7.53973 1.47787 1.59346 He
3.34693 4.51545 10.2699 He
3.48736 1.33962 1.60636 He
8.31905 1.33435 0.936831 He
5.90454 0.404207 10.4101 He
2.93275 0.869147 1.0465 He
7.81622 1.72012 1.68904 He
5.55586 0.957792 10.927 He
2.9889 2.25532 1.49713 He
8.18836 1.10847 1.58747 He
5.28211 -0.166575 10.5215 He
3.11723 1.88918 1.26517 He
7.33653 1.41468 1.55266 He
2.44454 4.41613 10.8598 He
2.63433 1.60768 0.770857 He
7.77872 1.61708 0.857186 He
2.45952 4.53496 10.4998 He
3.45674 1.35601 1.36568 He
7.80573 0.947205 1.70503 He
5.24964 0.0818959 10.8839 He
2.91845 1.35819 1.37493 He
7.72037 2.09877 1.02049 He
2.79414 4.4849 10.7382 He
5.39643 0.363224 2.40033 He
7.52779 1.91864 0.93723 He
2.51915 4.65005 11.0748 He
3.20832 1.59911 1.29257 He
8.05694 1.35161 0.889358 He
2.87079 4.73276 10.6145 He
2.76298 1.75843 0.588007 He
8.45003 1.63843 1.40135 He
2.93353 4.78498 10.9112 He
2.27106 2.54048 1.26584 He
7.48421 1.61573 1.5705 He
3.00375 4.62942 10.6503 He
2.89146 1.45826 0.400471 He
6.7667 0.821159 2.11732 He
2.83329 5.24463 10.7967 He
2.27169 2.33171 1.14482 He
7.98894 1.08855 1.10057 He
2.5547 4.35967 10.983 He
2.6712 2.5782 1.37052 He
8.00477 0.95614 1.66728 He
6.02205 0.0786842 10.6519 He
2.21173 1.53994 0.937048 He
7.42141 1.14772 1.61444 He
5.1347 0.484701 10.6918 He
2.81032 4.50836 2.67035 He
7.90606 1.6929 0.632351 He
5.92046 0.138424 10.5682 He
3.27561 4.42078 2.4313 He
7.5945 1.23824 1.33363 He
2.46796 4.71689 10.4602 He
4.49616 0.879721 2.37094 He
7.90685 1.01627 0.781898 He
3.33035 4.14229 10.8349 He
3.05593 1.46871 1.23055 He
7.81769 2.11881 1.01565 He
2.13074 4.29015 10.7659 He
2.28072 1.54912 0.853584 He
7.1684 1.63531 1.6504 He
2.61882 4.13656 10.7841 He
2.40322 1.36689 0.517939 He
7.51643 0.929155 1.88169 He
2.89282 4.57564 10.8812 He
3.03217 1.97129 0.66122 He
3.05009 4.56374 2.81183 He
6.18431 -0.178725 10.6561 He
3.56279 1.16714 1.69562 He
7.75701 1.85474 1.12199 He
2.94905 5.35308 10.5915 He
2.71501 2.02492 0.585321 He
7.29731 1.30728 1.5605 He
5.01409 0.167857 10.6122 He
3.58153 1.42817 1.58053 He
7.76438 1.14087 0.886507 He
2.55679 4.8847 10.487 He
3.2058 2.25416 1.46415 He
7.66351 1.10358 0.726425 He
2.86594 5.28415 10.8507 He
3.14207 1.57486 1.70501 He
7.96348 1.40229 0.973076 He
5.53905 0.381252 10.6221 He
5.76245 0.640315 2.92764 He
8.30122 1.33259 0.827893 He
5.2251 0.51103 10.4391 He
3.40978 1.4999 1.31987 He
7.659 1.96084 1.32572 He
2.85059 4.43261 10.7593 He
2.81828 1.9393 0.530405 He
7.59333 1.30615 1.47977 He
5.28177 0.420574 10.966 He
2.89182 1.52972 0.763141 He
8.36824 1.2496 0.971811 He
5.81584 -0.378731 10.6447 He
2.44119 2.38326 0.320198 He
7.6906 1.93825 1.0833 He
6.02087 -0.0883844 10.7155 He
2.40707 2.15686 0.722304 He
7.80208 2.30089 1.04357 He
5.71902 0.186819 10.911 He
2.59851 2.54556 1.61571 He
8.98508 1.48105 0.972686 He
3.24991 4.53502 10.4294 He
3.15307 1.9382 0.360934 He
8.14834 1.18509 0.736593 He
5.78915 0.358097 10.6075 He
2.82851 2.46294 0.783655 He
7.52099 1.42237 1.69026 He
2.76027 4.09961 10.787 He
3.36509 1.8973 0.783811 He
7.72051 2.07196 0.84156 He
5.03119 -0.152733 11.0036 He
2.91225 2.58553 2.00249 He
8.10733 1.91301 0.787125 He
5.27507 -0.0270488 10.3288 He
3.24396 2.40466 0.950537 He
8.26334 1.06919 1.0879 He
5.00674 0.0298792 10.6582 He
3.0063 2.0048 0.610224 He
7.4198 0.913825 1.47399 He
5.6799 0.904834 10.8076 He
3.10488 2.23239 1.52361 He
7.08258 0.989636 2.13928 He
2.61155 4.58897 10.7723 He
3.49572 2.27627 1.28866 He
8.1081 2.03084 1.57911 He
2.60664 4.57964 10.7219 He
2.7993 2.52632 1.94641 He
7.57785 1.91485 0.530811 He
5.66753 0.409185 10.7333 He
3.11536 1.12928 1.14107 He
8.03964 0.982284 0.904519 He
2.94506 4.86489 10.7623 He
4.9754 0.619631 2.68661 He
7.35282 1.95717 1.34684 He
6.05052 0.264908 10.5374 He
2.69302 2.33342 1.27228 He
7.88815 1.45125 1.21367 He
2.80238 4.56832 10.3416 He
3.37173 1.44105 0.879174 He
7.44276 1.27871 1.52351 He
5.93948 0.486951 10.505 He
3.43591 2.05632 1.06729 He
7.87735 1.29091 1.98252 He
3.08829 4.54238 10.6179 He
3.66453 1.37112 1.41891 He
7.40112 1.14799 1.49554 He
5.17449 0.239437 10.7095 He
3.50072 1.47484 0.961193 He
6.96342 0.926896 2.07026 He
5.93182 0.23198 10.3917 He
2.34583 1.93616 0.668818 He
6.2463 0.201114 2.71947 He
5.55232 0.969961 10.437 He
2.96809 2.38052 0.700926 He
7.08785 1.30214 1.54525 He
5.80266 -0.127957 10.6435 He
2.22372 1.60572 0.98332 He
7.95572 1.77529 1.2465 He
2.30266 4.67365 10.6592 He
3.1828 1.89801 1.851 He
7.78105 1.03833 1.54364 He
5.23873 0.368931 10.2184 He
2.59677 2.14104 0.916482 He
6.59652 0.473489 2.29771 He
5.24561 0.774026 10.8816 He
2.35768 1.64519 0.852498 He
6.19834 0.771437 2.40917 He
5.13583 0.659638 10.8636 He
2.37519 2.19169 1.18337 He
7.65537 2.12894 1.03918 He
2.40081 4.60378 10.9123 He
3.74252 1.38858 1.57876 He
8.4681 1.31839 1.13605 He
1.94381 4.61735 10.2354 He
4.64503 0.165113 2.75214 He
7.63295 1.54961 1.02374 He
4.96409 0.34291 10.6208 He
2.61928 2.18732 1.30744 He
7.13023 1.1931 1.63794 He
3.2412 4.65214 10.756 He
2.73105 2.69297 1.78641 He
8.34201 1.01355 1.16229 He
5.45772 0.688367 10.4611 He
2.81382 2.54069 1.40309 He
7.33535 1.34653 1.70469 He
5.41666 -0.0367547 10.8014 He
2.58745 2.81444 1.74142 He
8.21303 1.33519 1.12429 He
2.4198 4.43021 10.7722 He
3.12078 1.60206 0.658286 He
7.57862 2.00547 1.46703 He
2.53735 4.58707 10.6074 He
2.64877 2.2219 0.959272 He
7.24453 1.91166 1.30384 He
2.13015 4.69587 10.8421 He
3.15359 1.25096 0.83753 He
7.27342 0.766939 1.72564 He
1.98491 4.75777 10.7492 He
2.71639 2.86953 2.01628 He
7.88154 1.51719 0.564809 He
3.24149 4.42981 10.5226 He
3.19053 2.27974 1.19666 He
7.08635 1.88524 1.01699 He
5.47388 -0.0731788 10.6408 He
3.53707 1.77093 0.444789 He
7.90742 2.43983 1.30428 He
2.46131 4.56067 10.4866 He
2.58087 3.11106 1.83881 He
8.08946 1.74437 1.13912 He
2.47876 4.61556 10.8897 He
2.99851 1.9903 0.155495 He
5.12908 0.632134 2.80594 He
5.5935 0.112807 10.5872 He
2.64562 2.10735 1.61887 He
8.12113 1.02317 0.700359 He
2.32262 4.07798 10.3608 He
3.21111 2.46763 1.75927 He
8.25444 0.926702 0.635815 He
5.32023 0.394099 10.6268 He
3.26112 0.95109 1.64093 He
7.46149 1.18943 1.66489 He
2.83256 4.4542 10.1276 He
2.64121 1.97609 1.18781 He
8.29586 1.66369 0.813289 He
5.70734 0.515126 10.6905 He
3.18651 1.58206 1.2363 He
7.51287 1.23471 1.6308 He
5.20271 0.186212 10.9121 He
2.59286 3.0003 2.02423 He
7.75252 1.76186 1.0263 He
5.46115 0.0367223 10.6958 He
2.91295 1.26441 0.524125 He
7.78427 1.11834 1.52518 He
6.04566 0.370077 10.602 He
2.6925 2.34403 1.77751 He
8.18407 1.54975 0.548528 He
2.84057 4.1335 10.9419 He
2.77104 2.65574 1.45161 He
7.8813 1.41983 1.71552 He
5.92192 0.324066 10.5894 He
2.50071 1.99723 0.432447 He
5.84725 0.606472 2.65339 He
5.96226 -0.217804 10.5887 He
5.12021 0.46771 2.79229 He
8.29322 1.00057 1.00568 He
5.46509 -0.53205 10.466 He
5.10439 -0.0494755 2.44138 He
8.59871 1.96336 0.689373 He
2.18756 4.73454 11.0713 He
2.64808 3.68042 2.77808 He
8.1724 1.1359 0.819298 He
5.24887 0.747133 10.7597 He
2.9812 2.81161 1.03276 He
7.30343 1.73377 1.40417 He
5.28635 -0.198352 10.6896 He
2.76343 2.36928 1.54154 He
7.60403 1.64771 1.16273 He
1.96872 4.73823 10.6317 He
2.9154 2.16815 1.13083 He
8.88169 1.23515 1.39537 He
2.37751 4.47822 10.7699 He
2.96198 2.30003 0.721918 He
2.22505 4.52038 2.93146 He
2.96053 5.04988 10.7302 He
2.62349 1.36748 0.792985 He
5.97724 0.143302 2.9148 He
4.96737 0.670248 10.1951 He
3.50331 1.53083 1.04282 He
2.58463 4.17191 2.39459 He
5.511 0.489856 10.5315 He
3.38583 1.21513 0.844589 He
2.82912 3.92858 2.52232 He
5.67755 -0.0555914 10.7368 He
2.40102 1.76909 0.742145 He
5.23008 0.369624 2.81268 He
2.91915 4.22723 10.6333 He
3.06685 1.41024 0.676166 He
7.32055 2.18245 0.812904 He
5.83433 0.107118 10.0526 He
2.91402 1.26258 0.77973 He
7.38073 1.59072 1.19585 He
5.84704 0.356859 10.6998 He
3.24776 2.13046 1.33538 He
7.36224 1.80685 0.95003 He
2.76876 5.25923 10.7355 He
2.40246 5.18315 2.67137 He
8.24319 1.60059 1.29146 He
2.64768 5.06844 10.746 He
3.07883 4.48347 2.80748 He
8.363 0.659426 1.02279 He
5.51244 0.460401 10.0587 He
3.57436 1.62448 1.60753 He
7.3426 1.34333 1.69175 He
2.99747 4.66815 10.7633 He
3.3483 1.48708 0.956472 He
7.63878 1.7239 1.20528 He
2.6791 4.86966 10.8978 He
2.52297 1.21846 0.856346 He
7.98932 1.01487 1.60445 He
5.67656 0.25792 10.9338 He
2.72558 1.4974 1.1606 He
8.13974 0.724492 0.506716 He
5.56678 -0.20475 10.7626 He
2.60926 1.88926 0.513253 He
7.41664 1.07801 1.80351 He
5.59001 0.515371 10.661 He
3.37307 1.14993 1.4425 He
6.17543 0.655708 2.47317 He
5.24555 -0.052475 10.7715 He
2.9378 1.45143 1.57325 He
5.67648 0.656131 2.6959 He
5.27464 0.386631 10.5988 He
2.50402 2.4848 1.0972 He
8.0581 1.21936 0.842216 He
2.31105 4.93882 10.6427 He
2.59811 2.05149 0.504356 He
7.97844 1.86156 0.53704 He
4.89327 0.631553 10.6567 He
2.59283 2.24498 1.04395 He
6.5328 0.610404 2.3391 He
2.51625 4.90033 10.4071 He
3.16793 1.44723 1.28861 He
7.32193 1.51243 1.40071 He
2.33351 5.16249 10.4798 He
2.50598 2.11976 1.49068 He
7.37182 1.69546 1.34965 He
5.15235 0.359809 10.5103 He
3.39419 1.10888 1.3727 He
7.69388 2.12977 1.22079 He
2.33204 4.57957 10.45 He
3.08901 2.04457 0.945728 He
7.28322 2.17086 0.855381 He
5.4438 0.146532 10.804 He
3.2727 2.39667 1.47913 He
7.77435 1.83038 1.23218 He
5.53136 0.428894 10.6212 He
2.77324 2.99649 1.55372 He
7.99939 2.24097 0.712285 He
4.76304 -0.317995 10.6854 He
2.74746 2.26348 1.44454 He
8.32583 1.54925 0.210975 He
4.9363 0.215901 10.9086 He
2.34711 1.09935 0.836228 He
7.73176 0.954363 0.940287 He
5.28144 0.20142 10.7658 He
3.34298 1.56818 1.59735 He
6.46865 0.735385 2.69708 He
5.75293 -0.0701992 11.1668 He
2.76922 1.80606 0.855334 He
7.83775 1.17269 1.45951 He
3.10631 4.33046 10.8001 He
3.30943 1.33313 1.46641 He
7.90197 1.20821 0.894093 He
2.5051 4.36168 10.4946 He
2.70662 2.44823 0.398776 He
7.81835 0.779783 1.35609 He
2.51011 4.95815 10.6983 He
2.55889 2.60648 1.83343 He
7.83087 1.90941 0.696243 He
2.8304 4.56251 10.842 He
2.62335 4.14842 2.65055 He
8.42857 1.66631 0.492406 He
2.70192 4.51666 10.9059 He
2.45356 1.81209 1.6611 He
7.72423 1.21101 0.815152 He
2.72871 4.47705 10.7285 He
2.45632 2.5404 1.30821 He
7.90316 1.90406 1.12137 He
5.40316 0.529365 10.8601 He
2.80361 1.38401 0.577765 He
7.6309 1.85719 1.44507 He
5.82897 0.90168 10.4796 He
3.42279 2.49218 0.811709 He
7.54477 1.69354 0.864694 He
2.90349 5.3114 10.6735 He
2.53898 4.00408 2.40076 He
7.51343 2.04556 1.0158 He
5.02818 0.0196612 10.4344 He
3.53253 1.55245 1.3796 He
8.90044 1.29384 1.0292 He
2.28553 4.20669 10.3702 He
3.36546 1.81156 0.973151 He
7.86547 1.1998 1.05443 He
5.42325 0.220192 10.8403 He
2.59636 3.10272 1.89083 He
7.53738 0.920112 1.49239 He
5.50299 0.132571 10.4045 He
3.36178 2.03648 1.1316 He
7.46203 1.44326 0.952939 He
5.13665 -0.0423934 10.8429 He
3.58714 1.41312 1.9567 He
8.20939 0.995056 1.09002 He
5.01246 0.288766 10.5246 He
2.91961 1.72753 1.63334 He
7.42386 2.05518 0.642017 He
5.96822 -0.0936827 10.2887 He
2.66159 2.02241 0.745151 He
4.85993 0.680299 2.58322 He
2.51572 4.90147 10.8396 He
2.69294 2.11982 1.21228 He
8.11887 1.2471 1.6226 He
4.91669 0.205275 10.4458 He
2.37647 2.66445 1.34535 He
8.00306 1.04643 1.5405 He
5.48249 1.07303 10.9275 He
2.8812 2.27594 1.03055 He
7.3196 1.19565 1.63501 He
5.80217 0.790578 10.7578 He
3.08078 1.66291 0.832843 He
7.56414 1.42274 1.33307 He
5.25594 -0.167878 10.7805 He
3.3191 1.3996 1.65987 He
7.45572 1.26937 1.69134 He
5.1314 0.658156 9.9517 He
3.5699 1.13204 1.73939 He
7.52865 1.32271 1.24445 He
5.09593 0.229684 10.7799 He
3.05127 1.67144 0.802127 He
7.48292 1.58451 1.76569 He
5.97897 -0.124409 10.6114 He
3.36794 1.43493 1.16511 He
8.11717 0.932296 1.07628 He
2.70729 4.77665 10.7666 He
2.59889 1.17255 1.24009 He
5.22004 0.0265207 2.74107 He
5.60668 0.690344 10.6708 He
3.33513 2.41361 1.05735 He
8.12764 1.7321 0.851393 He
5.70461 -0.310437 10.6254 He
3.16898 1.39417 0.934789 He
7.66082 1.48985 1.3448 He
5.01126 0.40502 10.6389 He
2.52035 2.3235 1.66583 He
7.89278 1.02338 0.961565 He
5.6694 -0.102066 10.5659 He
3.37641 1.47994 0.620632 He
7.68289 1.60683 1.41729 He
5.33561 0.47423 10.3611 He
2.88508 1.70358 1.19085 He
7.90627 1.87739 1.41201 He
5.85214 0.115316 10.881 He
3.28656 1.12543 1.28128 He
6.03587 0.384412 2.54579 He
4.90494 0.197994 10.7109 He
2.80227 1.89826 1.05776 He
7.86096 1.22088 0.896366 He
5.74755 0.385128 10.6188 He
2.58194 1.99429 0.861487 He
7.62601 1.14902 1.939 He
5.50917 -0.244839 10.4522 He
2.15803 2.37205 1.18293 He
8.06722 1.48226 1.09978 He
5.44065 0.155867 10.6403 He
3.84968 1.04733 1.9923 He
7.40117 1.87744 0.565487 He
5.41719 0.47181 10.8684 He
2.77614 2.57779 1.53365 He
7.72568 1.32202 0.870776 He
5.89992 -0.0378873 10.7964 He
2.67473 2.20535 0.752637 He
7.98354 1.51465 1.06559 He
4.97231 0.333136 10.6026 He
3.30993 2.4593 1.61288 He
7.84133 1.92571 1.19825 He
5.05537 -0.102269 10.8595 He
3.06241 1.26754 0.978939 He
7.57987 1.53183 1.31752 He
4.74539 0.37914 10.8086 He
3.01295 1.84095 0.800489 He
7.36449 1.76523 1.28185 He
2.1605 4.78841 10.6908 He
2.89588 2.14678 1.72788 He
7.89656 1.53421 0.870869 He
5.05264 0.23457 10.4223 He
3.3201 1.89936 1.78074 He
7.57662 1.56714 1.50053 He
5.12607 0.154861 10.7611 He
2.24092 2.11867 0.684565 He
7.16432 0.979666 2.2416 He
5.47359 0.045632 10.7411 He
3.06405 0.909993 1.22431 He
7.56162 1.70655 0.701834 He
2.29286 4.40608 10.7846 He
2.27446 2.01797 0.770534 He
7.29457 1.72707 1.41424 He
4.92098 0.240723 10.6834 He
2.64004 1.86205 1.36667 He
7.43113 1.56843 0.87845 He
5.84558 0.192426 10.7636 He
3.68414 0.973706 1.84465 He
8.12734 1.37359 1.54447 He
3.12541 4.79974 10.5785 He
3.17505 2.02134 0.635566 He
5.88517 0.181674 2.6419 He
5.6501 0.131901 11.0381 He
2.91826 1.83814 1.51597 He
5.31196 0.646887 2.44482 He
5.52198 0.248544 10.7403 He
2.39965 1.56997 0.952336 He
3.06858 4.44373 2.94273 He
2.31736 5.01896 10.8878 He
3.4141 1.43747 1.48423 He
5.88306 0.121924 2.80178 He
1.94772 4.56716 10.6755 He
3.45059 1.39024 1.96563 He
6.09425 0.649435 2.72164 He
2.3633 4.71102 10.4534 He
2.37995 1.05033 0.856406 He
7.5644 1.62737 1.26533 He
5.89301 0.252586 10.6676 He
2.53879 1.03864 1.40716 He
7.18718 1.15051 1.77139 He
5.52892 -0.00208089 11.1851 He
2.84435 1.58675 1.16828 He
7.87091 1.37695 0.588239 He
5.99563 -0.0925933 10.5775 He
3.03876 2.18738 0.672074 He
8.09898 1.2382 1.36128 He
5.42235 -0.193971 10.703 He
3.03049 1.0449 1.42109 He
7.48103 1.43673 1.61336 He
5.67231 0.6788 10.7272 He
3.54322 1.63869 1.54819 He
8.21395 1.64068 0.367553 He
3.2716 4.72288 10.8294 He
2.3256 2.40026 0.95311 He
8.39981 1.67518 1.02339 He
2.84792 4.49708 10.9704 He
2.76763 1.07654 1.10133 He
7.61393 0.779136 1.53298 He
5.31183 -0.0697893 10.594 He
5.65368 0.635537 2.73416 He
8.49436 1.67897 0.576539 He
5.65652 0.592126 10.2598 He
2.56638 4.00853 2.57899 He
8.04824 1.94162 1.55027 He
2.74669 4.54126 10.3938 He
2.28175 1.35963 1.19713 He
7.32633 1.19795 1.35274 He
5.62861 0.0491424 10.4259 He
5.05056 -0.0101272 2.64046 He
8.12907 1.95973 0.749155 He
4.92215 0.111093 11.1444 He
1.93603 1.60346 1.13296 He
7.95584 1.2067 1.21823 He
5.76738 0.179172 10.6316 He
3.352 0.920469 1.14342 He
7.25489 1.44077 1.7745 He
2.67377 4.88438 10.7719 He
2.76108 5.23856 2.86573 He
8.29222 1.33978 0.956165 He
5.31602 0.646029 10.736 He
3.69218 0.828417 2.02687 He
7.47707 1.62946 1.29288 He
5.16135 -0.0765988 10.9742 He
3.02551 1.69655 1.46315 He
8.2521 1.19987 1.009 He
5.97536 0.181587 10.6793 He
2.98996 1.21553 1.56879 He
8.68911 0.851408 0.643495 He
5.69763 0.378811 10.8887 He
3.83754 1.19124 2.17052 He
7.86107 1.47073 0.591621 He
5.57466 0.934233 10.7558 He
2.87734 1.33312 1.2448 He
7.48787 1.40041 0.945868 He
2.72105 4.62032 10.5201 He
2.90103 2.54543 1.53211 He
7.79671 1.3834 0.988714 He
2.62624 4.31344 10.4296 He
3.31552 1.82304 0.619543 He
7.71154 1.35161 1.19735 He
5.71656 0.246118 10.6725 He
2.25165 2.46726 1.33366 He
7.67562 1.72805 1.53094 He
5.6901 0.0642653 10.9425 He
2.22383 1.59605 0.868808 He
7.36843 1.45392 1.4447 He
5.92103 -0.147853 10.7368 He
3.603 1.49804 1.12489 He
7.54475 1.38548 1.71521 He
5.72785 0.500544 10.8755 He
2.97628 1.27473 1.17452 He
8.15265 0.906683 1.38686 He
5.37723 0.415755 10.6655 He
3.18115 1.65884 1.2669 He
7.69752 2.30985 1.31824 He
2.95848 4.71482 10.8825 He
3.53325 1.53936 1.21134 He
8.08098 1.60153 1.65072 He
2.73772 4.37828 10.396 He
3.59625 1.97411 1.53871 He
7.78471 2.25224 1.13638 He
2.25077 4.50436 10.3914 He
2.98336 2.54728 0.96489 He
8.33554 1.84415 0.687563 He
5.32231 0.338834 10.6818 He
2.93768 2.11473 0.669294 He
8.00247 1.30277 0.304227 He
6.2363 0.0543248 10.891 He
2.38592 2.31505 0.428698 He
8.37175 2.13633 1.19669 He
5.27 0.780619 10.7909 He
3.02718 1.2211 1.07096 He
8.24465 1.65335 0.642051 He
5.66065 0.162976 10.3478 He
1.87851 1.81156 0.920274 He
7.78364 1.17491 0.87696 He
5.5206 -0.118241 11.0488 He
3.59264 1.49828 1.65441 He
7.03587 1.52652 1.52081 He
5.51805 0.135947 10.6019 He
2.63487 2.67191 1.84871 He
7.70492 1.42484 1.04692 He
5.46191 0.0602321 10.8366 He
3.49727 1.44872 0.949297 He
7.55711 1.57912 1.13313 He
3.03767 4.39072 10.8582 He
4.59352 0.709927 2.54363 He
7.80482 0.869357 1.03139 He
3.11988 4.82539 10.5868 He
2.44364 2.01168 1.38898 He
8.16728 1.01944 0.79863 He
2.44013 4.79923 11.1493 He
2.93287 1.54177 0.815326 He
5.35587 0.467812 2.62286 He
2.09721 4.92767 10.688 He
4.98903 0.334418 2.62692 He
8.02523 1.28526 1.15852 He
5.86836 0.202029 10.7807 He
3.54673 1.31939 1.82822 He
7.51908 1.57917 1.34932 He
5.1065 0.0338307 11.0068 He
2.98386 2.54429 1.53175 He
7.89608 1.20499 1.56273 He
2.26976 4.88655 10.4782 He
3.18641 1.66386 1.31883 He
7.40695 1.37564 1.9054 He
2.88409 4.52131 10.7636 He
3.11534 1.88131 1.17322 He
8.30793 1.30935 0.673762 He
5.62047 0.326079 10.625 He
2.37596 1.48998 0.651293 He
7.742 1.76091 0.813398 He
5.2088 0.100561 10.6902 He
2.57637 1.60095 0.77911 He
8.3737 0.857299 1.29773 He
5.79612 0.503746 10.4745 He