La   Li   Ti   O 
   1.00000000000000     
  10.9481601714999996   0.0000000000000000   0.0000000000000000
  -2.7370406741000002   4.7406920522000000   0.0000000000000000
   0.0000000000000000   0.0000000000000000  13.4090003966999998
La   Li   Ti   O 
7  3  12  36  
Direct
  0.3354601459847366  0.3401017698316766  0.5939186241231929  
  0.8339483383080142  0.3420244703862336  0.5909669476328944  
  0.1796070035940042  0.6948817350418346  0.9177204036002665  
  0.6679395208604100  0.6747960132131093  0.9215719042223102  
  0.1691801274025415  0.6774474183372328  0.4162630573083262  
  0.6632424584414274  0.6696398308073892  0.4180129685705171  
  0.0047536509889545  0.0125468022901679  0.2439016935483224  
  0.5225607963689526  0.0362941803322624  0.8001632566863348  
  0.4948085676826218  0.1563321354258159  0.2259112077928358  
  0.9027741614438627  0.4770532437011840  0.0696695972788522  
  0.0081462817849096  0.0299147118203158  0.9992861835474340  
  0.5080193837904660  0.0205049843078111  0.0107290309798055  
  0.0011154090661914  0.0110490762187398  0.5050380366134872  
  0.5004222669974827  0.0068650397745727  0.5048756440359412  
  0.3413882625867416  0.3588512341327148  0.3253483963997231  
  0.8241511573159638  0.3368060912174437  0.3262571798099203  
  0.3400060853042605  0.3493202955896590  0.8385455692042156  
  0.8406758509647456  0.3489887390132304  0.8379580562470023  
  0.1676419469331903  0.6754946394283320  0.6769502004679944  
  0.6690924839208338  0.6761069282951567  0.6783172165213521  
  0.1848693097218151  0.6991974370535485  0.1625086158724319  
  0.6692794385106235  0.6880673879967564  0.1626678934829152  
  0.2822994666707172  0.0029754769544282  0.2543617588951313  
  0.7796948038848645  0.9866406495970815  0.2596361997050599  
  0.2248103644801473  0.9965339754309460  0.7540905664800709  
  0.7125837151258957  0.9960108158472202  0.7559540423763709  
  0.0015055736496884  0.5637416589705464  0.2586141327666547  
  0.5079910707933809  0.5577064413652573  0.2592526287171183  
  0.9944083745667687  0.4517145678139723  0.7479615240525377  
  0.4969728572707272  0.4321167822338527  0.7465426508134764  
  0.2179409494820070  0.4567983024423924  0.2580302750691652  
  0.7106470641525547  0.4373938058712737  0.2597459192344124  
  0.2752386533078123  0.5516967701892368  0.7496994563783623  
  0.7730616850148307  0.5500901669479507  0.7525731233380065  
  0.1174052916389764  0.3493507993171795  0.5763291089017804  
  0.6154430744674325  0.3502307971572040  0.5784796459820133  
  0.0492872433571374  0.3366094525333578  0.0871280931186675  
  0.5589719445514374  0.3322984834163742  0.0891506152456527  
  0.3294855596213339  0.8891295937197171  0.5819794491494482  
  0.8285794992595581  0.8916349387826625  0.5809852541491162  
  0.3260671620006425  0.7787978598135097  0.0722794111733412  
  0.8338498442728001  0.7658686342593404  0.0898114806769495  
  0.0607205196655790  0.7759415638602329  0.5752709901794036  
  0.5576067244506353  0.7763074406082512  0.5815007443466872  
  0.1007711658353089  0.8761117355693315  0.0896723913522575  
  0.6160216932240146  0.8813641859928935  0.0758304797019422  
  0.4518109738260198  0.6930908869807751  0.9063166375191833  
  0.9467327613828450  0.6558473636632025  0.9268318105628697  
  0.3858197966038036  0.6515930411940100  0.4265232832704148  
  0.8837440299033850  0.6650367097625620  0.4197316700681095  
  0.1712231415318338  0.2305805605890235  0.9219248056439620  
  0.6656134317466792  0.2346129047245929  0.9168577461119025  
  0.1576875668634225  0.1060810138148777  0.4107924673998047  
  0.6718819340741456  0.1183625704628431  0.4265360446121209  
  0.4000007526879186  0.1288125054934240  0.9134500289926551  
  0.8869124318665239  0.1080721514539889  0.9203688557878131  
  0.4355647851578320  0.2196738251978105  0.4247480331827980  
  0.9430265653892235  0.2274875548035276  0.4208379019590621  
