La   Li   Ti   O                        
1.0
       21.8963203430         0.0000000000         0.0000000000
       -5.4740813483         9.4813841043         0.0000000000
        0.0000000000         0.0000000000        26.8180007935
   La   Li   Ti    O
   56   24   96  288
Cartesian
     2.742413521         1.609476447         7.946004868
     2.742413521         1.609476447        21.355005264
     0.005372591         6.350168705         7.946004868
     0.005372591         6.350168705        21.355005264
    13.690574646         1.609476447         7.946004868
    13.690574646         1.609476447        21.355005264
    10.953533173         6.350168705         7.946004868
    10.953533173         6.350168705        21.355005264
     8.184061050         1.606337190         7.898237705
     8.184061050         1.606337190        21.307237625
     5.447020531         6.347029209         7.898237705
     5.447020531         6.347029209        21.307237625
    19.132219315         1.606337190         7.898237705
    19.132219315         1.606337190        21.307237625
    16.395177841         6.347029209         7.898237705
    16.395177841         6.347029209        21.307237625
     0.051416792         3.244608879        12.293772697
     0.051416792         3.244608879        25.702774048
    -2.685624361         7.985301971        12.293772697
    -2.685624361         7.985301971        25.702774048
    10.999576569         3.244608879        12.293772697
    10.999576569         3.244608879        25.702774048
     8.262536049         7.985301971        12.293772697
     8.262536049         7.985301971        25.702774048
     5.499819279         3.221801281        12.360523224
     5.499819279         3.221801281        25.769523621
     2.762778759         7.962492943        12.360523224
     2.762778759         7.962492943        25.769523621
    16.447977066         3.221801281        12.360523224
    16.447977066         3.221801281        25.769523621
    13.710937500         7.962492943        12.360523224
    13.710937500         7.962492943        25.769523621
     0.008410494         3.197981358         5.574785709
     0.008410494         3.197981358        18.983785629
    -2.728630304         7.938673019         5.574785709
    -2.728630304         7.938673019        18.983785629
    10.956570625         3.197981358         5.574785709
    10.956570625         3.197981358        18.983785629
     8.219530106         7.938673019         5.574785709
     8.219530106         7.938673019        18.983785629
     5.435152531         3.163216352         5.581760406
     5.435152531         3.163216352        18.990760803
     2.698111773         7.903908253         5.581760406
     2.698111773         7.903908253        18.990760803
    16.383312225         3.163216352         5.581760406
    16.383312225         3.163216352        18.990760803
    13.646271706         7.903908253         5.581760406
    13.646271706         7.903908253        18.990760803
     0.050438058         0.035898767         3.283133745
     0.050438058         0.035898767        16.692134857
    -2.686602831         4.776591301         3.283133745
    -2.686602831         4.776591301        16.692134857
    10.998598099         0.035898767         3.283133745
    10.998598099         0.035898767        16.692134857
     8.261557579         4.776591301         3.283133745
     8.261557579         4.776591301        16.692134857
     5.550061226         0.067327760        10.769331932
     5.550061226         0.067327760        24.178333282
     2.813020468         4.808020115        10.769331932
     2.813020468         4.808020115        24.178333282
    16.498222351         0.067327760        10.769331932
    16.498222351         0.067327760        24.178333282
    13.761181831         4.808020115        10.769331932
    13.761181831         4.808020115        24.178333282
     3.067530632         2.325714827         1.406175017
     3.067530632         2.325714827        14.815175056
     0.330489635         7.066407204         1.406175017
     0.330489635         7.066407204        14.815175056
    14.015690804         2.325714827         1.406175017
    14.015690804         2.325714827        14.815175056
    11.278651237         7.066407204         1.406175017
    11.278651237         7.066407204        14.815175056
     8.601226807         2.199226856         0.900622308
     8.601226807         2.199226856        14.309622765
     5.864186287         6.939918995         0.900622308
     5.864186287         6.939918995        14.309622765
    19.549386978         2.199226856         0.900622308
    19.549386978         2.199226856        14.309622765
    16.812345505         6.939918995         0.900622308
    16.812345505         6.939918995        14.309622765
     0.019175151         0.118414119        26.798791885
     0.019175151         0.118414119        13.389793396
    -2.717865705         4.859106541        26.798791885
    -2.717865705         4.859106541        13.389793396
    10.967334747         0.118414119        26.798791885
    10.967334747         0.118414119        13.389793396
     8.230293274         4.859106541        26.798791885
     8.230293274         4.859106541        13.389793396
     5.538790226         0.126188844         0.176931113
     5.538790226         0.126188844        13.585930824
     2.801748753         4.866880894         0.176931113
     2.801748753         4.866880894        13.585930824
    16.486949921         0.126188844         0.176931113
    16.486949921         0.126188844        13.585930824
    13.749909401         4.866880894         0.176931113
    13.749909401         4.866880894        13.585930824
    -0.006598702         0.040482894         6.777683258
    -0.006598702         0.040482894        20.186683655
    -2.743639469         4.781175137         6.777683258
    -2.743639469         4.781175137        20.186683655
    10.941562653         0.040482894         6.777683258
    10.941562653         0.040482894        20.186683655
     8.204523087         4.781175137         6.777683258
     8.204523087         4.781175137        20.186683655
     5.465574741         0.010533325         6.738885880
     5.465574741         0.010533325        20.147886276
     2.728533983         4.751225471         6.738885880
     2.728533983         4.751225471        20.147886276
    16.413738251         0.010533325         6.738885880
    16.413738251         0.010533325        20.147886276
    13.676694870         4.751225471         6.738885880
    13.676694870         4.751225471        20.147886276
     2.807615519         1.661167026         4.357794285
     2.807615519         1.661167026        17.766794205
     0.070574567         6.401859283         4.357794285
     0.070574567         6.401859283        17.766794205
    13.755774498         1.661167026         4.357794285
    13.755774498         1.661167026        17.766794205
    11.018733978         6.401859283         4.357794285
    11.018733978         6.401859283        17.766794205
     8.123641014         1.572051525         4.359014034
     8.123641014         1.572051525        17.768014908
     5.386599541         6.312743664         4.359014034
     5.386599541         6.312743664        17.768014908
    19.071798325         1.572051525         4.359014034
    19.071798325         1.572051525        17.768014908
    16.334758759         6.312743664         4.359014034
    16.334758759         6.312743664        17.768014908
     2.790054321         1.629509807        11.234037399
     2.790054321         1.629509807        24.643039703
     0.053013794         6.370201588        11.234037399
     0.053013794         6.370201588        24.643039703
    13.738215446         1.629509807        11.234037399
    13.738215446         1.629509807        24.643039703
    11.001173973         6.370201588        11.234037399
    11.001173973         6.370201588        24.643039703
     8.247402191         1.646212578        11.202121735
     8.247402191         1.646212578        24.611122131
     5.510361195         6.386904716        11.202121735
     5.510361195         6.386904716        24.611122131
    19.195562363         1.646212578        11.202121735
    19.195562363         1.646212578        24.611122131
    16.458520889         6.386904716        11.202121735
    16.458520889         6.386904716        24.611122131
    -0.004706271         3.207208872         9.070410728
    -0.004706271         3.207208872        22.479410172
    -2.741746902         7.947900772         9.070410728
    -2.741746902         7.947900772        22.479410172
    10.943454742         3.207208872         9.070410728
    10.943454742         3.207208872        22.479410172
     8.206414223         7.947900772         9.070410728
     8.206414223         7.947900772        22.479410172
     5.475424290         3.193649054         9.078086853
     5.475424290         3.193649054        22.487085342
     2.738383770         7.934340954         9.078086853
     2.738383770         7.934340954        22.487085342
    16.423583984         3.193649054         9.078086853
    16.423583984         3.193649054        22.487085342
    13.686543465         7.934340954         9.078086853
    13.686543465         7.934340954        22.487085342
     0.123921610         3.290076017         2.188844919
     0.123921610         3.290076017        15.597845078
    -2.613119364         8.030768394         2.188844919
    -2.613119364         8.030768394        15.597845078
    11.072082520         3.290076017         2.188844919
    11.072082520         3.290076017        15.597845078
     8.335041046         8.030768394         2.188844919
     8.335041046         8.030768394        15.597845078
     5.522347450         3.169217348         2.220370293
     5.522347450         3.169217348        15.629370689
     2.785306454         7.909910202         2.220370293
     2.785306454         7.909910202        15.629370689
    16.470504761         3.169217348         2.220370293
    16.470504761         3.169217348        15.629370689
    13.733466148         7.909910202         2.220370293
    13.733466148         7.909910202        15.629370689
    -2.611131907         9.481165886         3.389904976
    -2.611131907         9.481165886        16.798906326
     0.125909224         4.740474224         3.389904976
     0.125909224         4.740474224        16.798906326
     8.337028503         9.481165886         3.389904976
     8.337028503         9.481165886        16.798906326
    11.074069023         4.740474224         3.389904976
    11.074069023         4.740474224        16.798906326
     5.821967602         4.679994583         3.461263180
     5.821967602         4.679994583        16.870264053
     3.084926844         9.420686722         3.461263180
     3.084926844         9.420686722        16.870264053
    16.770126343         4.679994583         3.461263180
    16.770126343         4.679994583        16.870264053
    14.033085823         9.420686722         3.461263180
    14.033085823         9.420686722        16.870264053
     2.436971903         0.009796631        10.063285828
     2.436971903         0.009796631        23.472284317
    -0.300068915         4.750488758        10.063285828
    -0.300068915         4.750488758        23.472284317
    13.385131836         0.009796631        10.063285828
    13.385131836         0.009796631        23.472284317
    10.648091316         4.750488758        10.063285828
    10.648091316         4.750488758        23.472284317
     5.102880955         4.708963871        10.140385628
     5.102880955         4.708963871        23.549386978
     2.365840197         9.449655533        10.140385628
     2.365840197         9.449655533        23.549386978
    16.051038742         4.708963871        10.140385628
    16.051038742         4.708963871        23.549386978
    13.314001083         9.449655533        10.140385628
    13.314001083         9.449655533        23.549386978
    20.370326996         2.627463102         3.436016321
    20.370326996         2.627463102        16.845016479
    17.633287430         7.368155003         3.436016321
    17.633287430         7.368155003        16.845016479
     9.422166824         2.627463102         3.436016321
     9.422166824         2.627463102        16.845016479
     6.685125828         7.368155003         3.436016321
     6.685125828         7.368155003        16.845016479
     3.958643913         2.642051697         3.370328903
     3.958643913         2.642051697        16.779329300
     1.221603274         7.382743359         3.370328903
     1.221603274         7.382743359        16.779329300
    14.906804085         2.642051697         3.370328903
    14.906804085         2.642051697        16.779329300
    12.169763565         7.382743359         3.370328903
    12.169763565         7.382743359        16.779329300
     9.664912224         2.142968655        10.043615341
     9.664912224         2.142968655        23.452615738
     6.927871227         6.883660793        10.043615341
     6.927871227         6.883660793        23.452615738
    20.613073349         2.142968655        10.043615341
    20.613073349         2.142968655        23.452615738
    17.876031876         6.883660793        10.043615341
    17.876031876         6.883660793        23.452615738
     4.253194332         2.048027754        10.007553101
     4.253194332         2.048027754        23.416553497
     1.516153216         6.788720608        10.007553101
     1.516153216         6.788720608        23.416553497
    15.201354027         2.048027754        10.007553101
    15.201354027         2.048027754        23.416553497
    12.464312553         6.788720608        10.007553101
    12.464312553         6.788720608        23.416553497
     1.134201884         2.173857212         3.467507601
     1.134201884         2.173857212        16.876506805
    -1.602839112         6.914549351         3.467507601
    -1.602839112         6.914549351        16.876506805
    12.082362175         2.173857212         3.467507601
    12.082362175         2.173857212        16.876506805
     9.345321655         6.914549351         3.467507601
     9.345321655         6.914549351        16.876506805
     6.633399963         2.180505276         3.458543301
     6.633399963         2.180505276        16.867542267
     3.896359682         6.921196938         3.458543301
     3.896359682         6.921196938        16.867542267
    17.581560135         2.180505276         3.458543301
    17.581560135         2.180505276        16.867542267
    14.844518661         6.921196938         3.458543301
    14.844518661         6.921196938        16.867542267
     1.513187408         2.674175739        10.081830025
     1.513187408         2.674175739        23.490831375
    -1.223853827         7.414867878        10.081830025
    -1.223853827         7.414867878        23.490831375
    12.461347580         2.674175739        10.081830025
    12.461347580         2.674175739        23.490831375
     9.724307060         7.414867878        10.081830025
     9.724307060         7.414867878        23.490831375
     6.958644867         2.582517147        10.064238548
     6.958644867         2.582517147        23.473237991
     4.221604347         7.323208809        10.064238548
     4.221604347         7.323208809        23.473237991
    17.906805038         2.582517147        10.064238548
    17.906805038         2.582517147        23.473237991
    15.169765472         7.323208809        10.064238548
    15.169765472         7.323208809        23.473237991
     0.321246445         1.644224286         7.754306793
     0.321246445         1.644224286        21.163307190
    -2.415794611         6.384917259         7.754306793
    -2.415794611         6.384917259        21.163307190
    11.269405365         1.644224286         7.754306793
    11.269405365         1.644224286        21.163307190
     8.532365799         6.384917259         7.754306793
     8.532365799         6.384917259        21.163307190
     5.752692223         1.669065356         7.723948479
     5.752692223         1.669065356        21.132947922
     3.015651226         6.409757614         7.723948479
     3.015651226         6.409757614        21.132947922
    16.700851440         1.669065356         7.723948479
    16.700851440         1.669065356        21.132947922
    13.963810921         6.409757614         7.723948479
    13.963810921         6.409757614        21.132947922
    -0.361464500         1.553534508         1.188004851
    -0.361464500         1.553534508        14.597004890
    -3.098505259         6.294226646         1.188004851
    -3.098505259         6.294226646        14.597004890
    10.586695671         1.553534508         1.188004851
    10.586695671         1.553534508        14.597004890
     7.849654675         6.294226646         1.188004851
     7.849654675         6.294226646        14.597004890
     5.010749817         1.688669443         1.031241536
     5.010749817         1.688669443        14.440241814
     2.273708820         6.429362297         1.031241536
     2.273708820         6.429362297        14.440241814
    15.958910942         1.688669443         1.031241536
    15.958910942         1.688669443        14.440241814
    13.221869469         6.429362297         1.031241536
    13.221869469         6.429362297        14.440241814
     1.155231595         4.210693836         7.773959160
     1.155231595         4.210693836        21.182958603
    -1.581809282         8.951386452         7.773959160
    -1.581809282         8.951386452        21.182958603
    12.103391647         4.210693836         7.773959160
    12.103391647         4.210693836        21.182958603
     9.366351128         8.951386452         7.773959160
     9.366351128         8.951386452        21.182958603
     6.611131668         4.217559814         7.772097111
     6.611131668         4.217559814        21.181098938
     3.874090672         8.958251953         7.772097111
     3.874090672         8.958251953        21.181098938
    17.559289932         4.217559814         7.772097111
    17.559289932         4.217559814        21.181098938
    14.822249413         8.958251953         7.772097111
    14.822249413         8.958251953        21.181098938
     1.525932431         3.567178726         0.995388985
     1.525932431         3.567178726        14.404390335
    -1.211108446         8.307870865         0.995388985
    -1.211108446         8.307870865        14.404390335
    12.474093437         3.567178726         0.995388985
    12.474093437         3.567178726        14.404390335
     9.737051964         8.307870865         0.995388985
     9.737051964         8.307870865        14.404390335
     7.036823273         3.595374823         1.167003274
     7.036823273         3.595374823        14.576004028
     4.299783230         8.336067200         1.167003274
     4.299783230         8.336067200        14.576004028
    17.984985352         3.595374823         1.167003274
    17.984985352         3.595374823        14.576004028
    15.247943878         8.336067200         1.167003274
    15.247943878         8.336067200        14.576004028
    -1.477390647         3.652846575         7.714169502
    -1.477390647         3.652846575        21.123168945
    -4.214431286         8.393538475         7.714169502
    -4.214431286         8.393538475        21.123168945
     9.470769882         3.652846575         7.714169502
     9.470769882         3.652846575        21.123168945
     6.733727932         8.393538475         7.714169502
     6.733727932         8.393538475        21.123168945
     3.964803934         3.704265356         7.807531357
     3.964803934         3.704265356        21.216531754
     1.227763295         8.444957733         7.807531357
     1.227763295         8.444957733        21.216531754
    14.912962914         3.704265356         7.807531357
    14.912962914         3.704265356        21.216531754
    12.175922394         8.444957733         7.807531357
    12.175922394         8.444957733        21.216531754
    -1.247204065         4.124874592         1.140189290
    -1.247204065         4.124874592        14.549189568
    -3.984244823         8.865567207         1.140189290
    -3.984244823         8.865567207        14.549189568
     9.700955391         4.124874592         1.140189290
     9.700955391         4.124874592        14.549189568
     6.963914394         8.865567207         1.140189290
     6.963914394         8.865567207        14.549189568
     4.288410187         4.203963757         1.070264339
     4.288410187         4.203963757        14.479264259
     1.551368952         8.944655418         1.070264339
     1.551368952         8.944655418        14.479264259
    15.236570358         4.203963757         1.070264339
    15.236570358         4.203963757        14.479264259
    12.499529839         8.944655418         1.070264339
    12.499529839         8.944655418        14.479264259
     3.090608358         3.217253208        12.222717285
     3.090608358         3.217253208        25.631717682
     0.353567630         7.957945347        12.222717285
     0.353567630         7.957945347        25.631717682
    14.038766861         3.217253208        12.222717285
    14.038766861         3.217253208        25.631717682
    11.301727295         7.957945347        12.222717285
    11.301727295         7.957945347        25.631717682
     8.529269218         3.110157967        12.396394730
     8.529269218         3.110157967        25.805393219
     5.792228699         7.850850105        12.396394730
     5.792228699         7.850850105        25.805393219
    19.477430344         3.110157967        12.396394730
    19.477430344         3.110157967        25.805393219
    16.740388870         7.850850105        12.396394730
    16.740388870         7.850850105        25.805393219
     2.450650930         3.086097717         5.721231461
     2.450650930         3.086097717        19.130231857
    -0.286390275         7.826790810         5.721231461
    -0.286390275         7.826790810        19.130231857
    13.398810387         3.086097717         5.721231461
    13.398810387         3.086097717        19.130231857
    10.661769867         7.826790810         5.721231461
    10.661769867         7.826790810        19.130231857
     7.855091572         3.159886837         5.617550850
     7.855091572         3.159886837        19.026552200
     5.118050098         7.900578499         5.617550850
     5.118050098         7.900578499        19.026552200
    18.803251266         3.159886837         5.617550850
    18.803251266         3.159886837        19.026552200
    16.066209793         7.900578499         5.617550850
    16.066209793         7.900578499        19.026552200
     1.256429553         1.080855250        12.365480423
     1.256429553         1.080855250        25.774480820
    -1.480611324         5.821547508        12.365480423
    -1.480611324         5.821547508        25.774480820
    12.204589844         1.080855250        12.365480423
    12.204589844         1.080855250        25.774480820
     9.467547417         5.821547508        12.365480423
     9.467547417         5.821547508        25.774480820
     6.634326935         1.081007123        12.297940254
     6.634326935         1.081007123        25.706941605
     3.897286177         5.821699142        12.297940254
     3.897286177         5.821699142        25.706941605
    17.582483292         1.081007123        12.297940254
    17.582483292         1.081007123        25.706941605
    14.845445633         5.821699142        12.297940254
    14.845445633         5.821699142        25.706941605
     1.430953622         0.512957513         5.551623344
     1.430953622         0.512957513        18.960624695
    -1.306087255         5.253650188         5.551623344
    -1.306087255         5.253650188        18.960624695
    12.379114151         0.512957513         5.551623344
    12.379114151         0.512957513        18.960624695
     9.642072678         5.253650188         5.551623344
     9.642072678         5.253650188        18.960624695
     7.031075001         0.562844038         5.704654694
     7.031075001         0.562844038        19.113655090
     4.294034004         5.303536892         5.704654694
     4.294034004         5.303536892        19.113655090
    17.979234695         0.562844038         5.704654694
    17.979234695         0.562844038        19.113655090
    15.242194176         5.303536892         5.704654694
    15.242194176         5.303536892        19.113655090
     4.004217148         0.509395361        12.213447571
     4.004217148         0.509395361        25.622447968
     1.267176628         5.250087261        12.213447571
     1.267176628         5.250087261        25.622447968
    14.952378273         0.509395361        12.213447571
    14.952378273         0.509395361        25.622447968
    12.215337753         5.250087261        12.213447571
    12.215337753         5.250087261        25.622447968
     9.421288490         0.550404966        12.358295441
     9.421288490         0.550404966        25.767295837
     6.684247971         5.291097164        12.358295441
     6.684247971         5.291097164        25.767295837
    20.369449615         0.550404966        12.358295441
    20.369449615         0.550404966        25.767295837
    17.632408142         5.291097164        12.358295441
    17.632408142         5.291097164        25.767295837
     4.148741722         1.042992949         5.672370911
     4.148741722         1.042992949        19.081371307
     1.411700845         5.783685207         5.672370911
     1.411700845         5.783685207        19.081371307
    15.096901894         1.042992949         5.672370911
    15.096901894         1.042992949        19.081371307
    12.359861374         5.783685207         5.672370911
    12.359861374         5.783685207        19.081371307
     9.696082115         1.086504698         5.638987541
     9.696082115         1.086504698        19.047986984
     6.959040165         5.827196598         5.638987541
     6.959040165         5.827196598        19.047986984
    20.644239426         1.086504698         5.638987541
    20.644239426         1.086504698        19.047986984
    17.907199860         5.827196598         5.638987541
    17.907199860         5.827196598        19.047986984
