La   Li   Ti   O                        
1.0
       21.8963203430         0.0000000000         0.0000000000
       -5.4740813483         9.4813841043         0.0000000000
        0.0000000000         0.0000000000        26.8180007935
   La   Li   Ti    O
   56   24   96  288
Direct
     0.167683218         0.169751212         0.296293707
     0.167683218         0.169751212         0.796293707
     0.167683212         0.669751234         0.296293707
     0.167683212         0.669751234         0.796293707
     0.667683262         0.169751212         0.296293707
     0.667683262         0.169751212         0.796293707
     0.667683231         0.669751234         0.296293707
     0.667683231         0.669751234         0.796293707
     0.416119257         0.169420115         0.294512546
     0.416119257         0.169420115         0.794512529
     0.416119263         0.669420112         0.294512546
     0.416119263         0.669420112         0.794512529
     0.916119170         0.169420115         0.294512546
     0.916119170         0.169420115         0.794512529
     0.916119132         0.669420112         0.294512546
     0.916119132         0.669420112         0.794512529
     0.087900302         0.342208357         0.458414958
     0.087900302         0.342208357         0.958414993
     0.087900306         0.842208417         0.458414958
     0.087900306         0.842208417         0.958414993
     0.587900284         0.342208357         0.458414958
     0.587900284         0.342208357         0.958414993
     0.587900306         0.842208417         0.458414958
     0.587900306         0.842208417         0.958414993
     0.336126227         0.339802819         0.460903977
     0.336126227         0.339802819         0.960903977
     0.336126230         0.839802803         0.460903977
     0.336126230         0.839802803         0.960903977
     0.836126206         0.339802819         0.460903977
     0.836126206         0.339802819         0.960903977
     0.836126165         0.839802803         0.460903977
     0.836126165         0.839802803         0.960903977
     0.084706765         0.337290560         0.207874769
     0.084706765         0.337290560         0.707874751
     0.084706760         0.837290519         0.207874769
     0.084706760         0.837290519         0.707874751
     0.584706763         0.337290560         0.207874769
     0.584706763         0.337290560         0.707874751
     0.584706760         0.837290519         0.207874769
     0.584706760         0.837290519         0.707874751
     0.331628182         0.333623901         0.208134844
     0.331628182         0.333623901         0.708134844
     0.331628174         0.833623885         0.208134844
     0.331628174         0.833623885         0.708134844
     0.831628160         0.333623901         0.208134844
     0.831628160         0.333623901         0.708134844
     0.831628163         0.833623885         0.208134844
     0.831628163         0.833623885         0.708134844
     0.003250054         0.003786237         0.122422763
     0.003250054         0.003786237         0.622422789
     0.003250057         0.503786288         0.122422763
     0.003250057         0.503786288         0.622422789
     0.503250048         0.003786237         0.122422763
     0.503250048         0.003786237         0.622422789
     0.503250068         0.503786288         0.122422763
     0.503250068         0.503786288         0.622422789
     0.255245304         0.007101048         0.401571020
     0.255245304         0.007101048         0.901571056
     0.255245308         0.507101080         0.401571020
     0.255245308         0.507101080         0.901571056
     0.755245348         0.007101048         0.401571020
     0.755245348         0.007101048         0.901571056
     0.755245362         0.507101080         0.401571020
     0.755245362         0.507101080         0.901571056
     0.201416633         0.245292755         0.052433999
     0.201416633         0.245292755         0.552433985
     0.201416627         0.745292789         0.052433999
     0.201416627         0.745292789         0.552433985
     0.701416633         0.245292755         0.052433999
     0.701416633         0.245292755         0.552433985
     0.701416649         0.745292789         0.052433999
     0.701416649         0.745292789         0.552433985
     0.450804120         0.231952090         0.033582753
     0.450804120         0.231952090         0.533582756
     0.450804129         0.731952099         0.033582753
     0.450804129         0.731952099         0.533582756
     0.950804120         0.231952090         0.033582753
     0.950804120         0.231952090         0.533582756
     0.950804085         0.731952099         0.033582753
     0.950804085         0.731952099         0.533582756
     0.003998005         0.012489117         0.999283731
     0.003998005         0.012489117         0.499283802
     0.003998006         0.512489156         0.999283731
     0.003998006         0.512489156         0.499283802
     0.503997979         0.012489117         0.999283731
     0.503997979         0.012489117         0.499283802
     0.503997952         0.512489156         0.999283731
     0.503997952         0.512489156         0.499283802
     0.256282556         0.013309116         0.006597476
     0.256282556         0.013309116         0.506597450
     0.256282541         0.513309116         0.006597476
     0.256282541         0.513309116         0.506597450
     0.756282556         0.013309116         0.006597476
     0.756282556         0.013309116         0.506597450
     0.756282563         0.513309116         0.006597476
     0.756282563         0.513309116         0.506597450
     0.000766070         0.004269724         0.252728878
     0.000766070         0.004269724         0.752728878
     0.000766071         0.504269744         0.252728878
     0.000766071         0.504269744         0.752728878
     0.500766124         0.004269724         0.252728878
     0.500766124         0.004269724         0.752728878
     0.500766136         0.504269744         0.252728878
     0.500766136         0.504269744         0.752728878
     0.249889300         0.001110948         0.251282187
     0.249889300         0.001110948         0.751282187
     0.249889299         0.501110958         0.251282187
     0.249889299         0.501110958         0.751282187
     0.749889365         0.001110948         0.251282187
     0.749889365         0.001110948         0.751282187
     0.749889331         0.501110958         0.251282187
     0.749889331         0.501110958         0.751282187
     0.172023928         0.175203009         0.162495121
     0.172023928         0.175203009         0.662495103
     0.172023921         0.675203031         0.162495121
     0.172023921         0.675203031         0.662495103
     0.672023874         0.175203009         0.162495121
     0.672023874         0.175203009         0.662495103
     0.672023886         0.675203031         0.162495121
     0.672023886         0.675203031         0.662495103
     0.412455861         0.165804012         0.162540604
     0.412455861         0.165804012         0.662540621
     0.412455827         0.665804021         0.162540604
     0.412455827         0.665804021         0.662540621
     0.912455731         0.165804012         0.162540604
     0.912455731         0.165804012         0.662540621
     0.912455783         0.665804021         0.162540604
     0.912455783         0.665804021         0.662540621
     0.170387200         0.171864115         0.418899137
     0.170387200         0.171864115         0.918899209
     0.170387191         0.671864099         0.418899137
     0.170387191         0.671864099         0.918899209
     0.670387232         0.171864115         0.418899137
     0.670387232         0.171864115         0.918899209
     0.670387192         0.671864099         0.418899137
     0.670387192         0.671864099         0.918899209
     0.420063445         0.173625766         0.417709054
     0.420063445         0.173625766         0.917709054
     0.420063433         0.673625775         0.417709054
     0.420063433         0.673625775         0.917709054
     0.920063445         0.173625766         0.417709054
     0.920063445         0.173625766         0.917709054
     0.920063411         0.673625775         0.417709054
     0.920063411         0.673625775         0.917709054
     0.084351031         0.338263785         0.338220988
     0.084351031         0.338263785         0.838220953
     0.084351029         0.838263769         0.338220988
     0.084351029         0.838263769         0.838220953
     0.584351070         0.338263785         0.338220988
     0.584351070         0.338263785         0.838220953
     0.584351073         0.838263769         0.338220988
     0.584351073         0.838263769         0.838220953
     0.334269817         0.336833633         0.338507218
     0.334269817         0.336833633         0.838507147
     0.334269820         0.836833617         0.338507218
     0.334269820         0.836833617         0.838507147
     0.834269795         0.336833633         0.338507218
     0.834269795         0.336833633         0.838507147
     0.834269798         0.836833617         0.338507218
     0.834269798         0.836833617         0.838507147
     0.092410434         0.347003769         0.081618497
     0.092410434         0.347003769         0.581618488
     0.092410440         0.847003803         0.081618497
     0.092410440         0.847003803         0.581618488
     0.592410468         0.347003769         0.081618497
     0.592410468         0.347003769         0.581618488
     0.592410440         0.847003803         0.081618497
     0.592410440         0.847003803         0.581618488
     0.335768585         0.334256825         0.082794027
     0.335768585         0.334256825         0.582794027
     0.335768590         0.834256859         0.082794027
     0.335768590         0.834256859         0.582794027
     0.835768542         0.334256825         0.082794027
     0.835768542         0.334256825         0.582794027
     0.835768601         0.834256859         0.082794027
     0.835768601         0.834256859         0.582794027
     0.130744522         0.999976985         0.126404090
     0.130744522         0.999976985         0.626404125
     0.130744539         0.499977026         0.126404090
     0.130744539         0.499977026         0.626404125
     0.630744511         0.999976985         0.126404090
     0.630744511         0.999976985         0.626404125
     0.630744514         0.499977026         0.126404090
     0.630744514         0.499977026         0.626404125
     0.389287556         0.493598248         0.129064922
     0.389287556         0.493598248         0.629064940
     0.389287555         0.993598257         0.129064922
     0.389287555         0.993598257         0.629064940
     0.889287469         0.493598248         0.129064922
     0.889287469         0.493598248         0.629064940
     0.889287522         0.993598257         0.129064922
     0.889287522         0.993598257         0.629064940
     0.111554268         0.001033249         0.375243699
     0.111554268         0.001033249         0.875243628
     0.111554264         0.501033257         0.375243699
     0.111554264         0.501033257         0.875243628
     0.611554257         0.001033249         0.375243699
     0.611554257         0.001033249         0.875243628
     0.611554266         0.501033257         0.375243699
     0.611554266         0.501033257         0.875243628
     0.357210857         0.496653634         0.378118627
     0.357210857         0.496653634         0.878118662
     0.357210843         0.996653593         0.378118627
     0.357210843         0.996653593         0.878118662
     0.857210835         0.496653634         0.378118627
     0.857210835         0.496653634         0.878118662
     0.857210875         0.996653593         0.378118627
     0.857210875         0.996653593         0.878118662
     0.999587769         0.277118095         0.128123507
     0.999587769         0.277118095         0.628123498
     0.999587815         0.777118079         0.128123507
     0.999587815         0.777118079         0.628123498
     0.499587769         0.277118095         0.128123507
     0.499587769         0.277118095         0.628123498
     0.499587750         0.777118079         0.128123507
     0.499587750         0.777118079         0.628123498
     0.250454577         0.278656752         0.125674129
     0.250454577         0.278656752         0.625674129
     0.250454568         0.778656711         0.125674129
     0.250454568         0.778656711         0.625674129
     0.750454577         0.278656752         0.125674129
     0.750454577         0.278656752         0.625674129
     0.750454573         0.778656711         0.125674129
     0.750454573         0.778656711         0.625674129
     0.497899006         0.226018547         0.374510219
     0.497899006         0.226018547         0.874510219
     0.497898994         0.726018556         0.374510219
     0.497898994         0.726018556         0.874510219
     0.997899050         0.226018547         0.374510219
     0.997899050         0.226018547         0.874510219
     0.997899015         0.726018556         0.374510219
     0.997899015         0.726018556         0.874510219
     0.248243722         0.216005146         0.373165516
     0.248243722         0.216005146         0.873165516
     0.248243727         0.716005180         0.373165516
     0.248243727         0.716005180         0.873165516
     0.748243701         0.216005146         0.373165516
     0.748243701         0.216005146         0.873165516
     0.748243673         0.716005180         0.373165516
     0.748243673         0.716005180         0.873165516
     0.109117841         0.229276358         0.129297766
     0.109117841         0.229276358         0.629297722
     0.109117834         0.729276367         0.129297766
     0.109117834         0.729276367         0.629297722
     0.609117852         0.229276358         0.129297766
     0.609117852         0.229276358         0.629297722
     0.609117861         0.729276367         0.129297766
     0.609117861         0.729276367         0.629297722
     0.360440272         0.229977528         0.128963502
     0.360440272         0.229977528         0.628963449
     0.360440280         0.729977487         0.128963502
     0.360440280         0.729977487         0.628963449
     0.860440272         0.229977528         0.128963502
     0.860440272         0.229977528         0.628963449
     0.860440225         0.729977487         0.128963502
     0.860440225         0.729977487         0.628963449
     0.139618160         0.282044869         0.375935183
     0.139618160         0.282044869         0.875935218
     0.139618148         0.782044878         0.375935183
     0.139618148         0.782044878         0.875935218
     0.639618160         0.282044869         0.375935183
     0.639618160         0.282044869         0.875935218
     0.639618170         0.782044878         0.375935183
     0.639618170         0.782044878         0.875935218
     0.385894161         0.272377628         0.375279225
     0.385894161         0.272377628         0.875279189
     0.385894164         0.772377612         0.375279225
     0.385894164         0.772377612         0.875279189
     0.885894248         0.272377628         0.375279225
     0.885894248         0.272377628         0.875279189
     0.885894207         0.772377612         0.375279225
     0.885894207         0.772377612         0.875279189
     0.058025278         0.173416061         0.289145595
     0.058025278         0.173416061         0.789145595
     0.058025283         0.673416108         0.289145595
     0.058025283         0.673416108         0.789145595
     0.558025264         0.173416061         0.289145595
     0.558025264         0.173416061         0.789145595
     0.558025283         0.673416108         0.289145595
     0.558025283         0.673416108         0.789145595
     0.306733175         0.176036045         0.288013582
     0.306733175         0.176036045         0.788013547
     0.306733165         0.676036066         0.288013582
     0.306733165         0.676036066         0.788013547
     0.806733131         0.176036045         0.288013582
     0.806733131         0.176036045         0.788013547
     0.806733144         0.676036066         0.288013582
     0.806733144         0.676036066         0.788013547
     0.024454764         0.163851025         0.044298785
     0.024454764         0.163851025         0.544298772
     0.024454762         0.663851035         0.044298785
     0.024454762         0.663851035         0.544298772
     0.524454764         0.163851025         0.044298785
     0.524454764         0.163851025         0.544298772
     0.524454751         0.663851035         0.044298785
     0.524454751         0.663851035         0.544298772
     0.273365743         0.178103684         0.038453334
     0.273365743         0.178103684         0.538453329
     0.273365747         0.678103719         0.038453334
     0.273365747         0.678103719         0.538453329
     0.773365786         0.178103684         0.038453334
     0.773365786         0.178103684         0.538453329
     0.773365758         0.678103719         0.038453334
     0.773365758         0.678103719         0.538453329
     0.163784486         0.444101177         0.289878400
     0.163784486         0.444101177         0.789878364
     0.163784491         0.944101236         0.289878400
     0.163784491         0.944101236         0.789878364
     0.663784480         0.444101177         0.289878400
     0.663784480         0.444101177         0.789878364
     0.663784502         0.944101236         0.289878400
     0.663784502         0.944101236         0.789878364
     0.413135247         0.444825330         0.289808967
     0.413135247         0.444825330         0.789809020
     0.413135245         0.944825339         0.289808967
     0.413135245         0.944825339         0.789809020
     0.913135160         0.444825330         0.289808967
     0.913135160         0.444825330         0.789809020
     0.913135213         0.944825339         0.289808967
     0.913135213         0.944825339         0.789809020
     0.163746447         0.376229745         0.037116450
     0.163746447         0.376229745         0.537116486
     0.163746440         0.876229754         0.037116450
     0.163746440         0.876229754         0.537116486
     0.663746485         0.376229745         0.037116450
     0.663746485         0.376229745         0.537116486
     0.663746451         0.876229754         0.037116450
     0.663746451         0.876229754         0.537116486
     0.416171046         0.379203583         0.043515670
     0.416171046         0.379203583         0.543515683
     0.416171061         0.879203617         0.043515670
     0.416171061         0.879203617         0.543515683
     0.916171133         0.379203583         0.043515670
     0.916171133         0.379203583         0.543515683
     0.916171105         0.879203617         0.043515670
     0.916171105         0.879203617         0.543515683
     0.028844205         0.385265119         0.287648940
     0.028844205         0.385265119         0.787648904
     0.028844203         0.885265103         0.287648940
     0.028844203         0.885265103         0.787648904
     0.528844221         0.385265119         0.287648940
     0.528844221         0.385265119         0.787648904
     0.528844203         0.885265103         0.287648940
     0.528844203         0.885265103         0.787648904
     0.278743784         0.390688249         0.291130253
     0.278743784         0.390688249         0.791130253
     0.278743789         0.890688284         0.291130253
     0.278743789         0.890688284         0.791130253
     0.778743730         0.390688249         0.291130253
     0.778743730         0.390688249         0.791130253
     0.778743745         0.890688284         0.291130253
     0.778743745         0.890688284         0.791130253
     0.051802956         0.435049835         0.042515820
     0.051802956         0.435049835         0.542515815
     0.051802967         0.935049895         0.042515820
     0.051802967         0.935049895         0.542515815
     0.551802924         0.435049835         0.042515820
     0.551802924         0.435049835         0.542515815
     0.551802945         0.935049895         0.042515820
     0.551802945         0.935049895         0.542515815
     0.306698588         0.443391356         0.039908431
     0.306698588         0.443391356         0.539908413
     0.306698574         0.943391315         0.039908431
     0.306698574         0.943391315         0.539908413
     0.806698588         0.443391356         0.039908431
     0.806698588         0.443391356         0.539908413
     0.806698585         0.943391315         0.039908431
     0.806698585         0.943391315         0.539908413
     0.225978194         0.339323159         0.455765416
     0.225978194         0.339323159         0.955765416
     0.225978194         0.839323168         0.455765416
     0.225978194         0.839323168         0.955765416
     0.725978162         0.339323159         0.455765416
     0.725978162         0.339323159         0.955765416
     0.725978171         0.839323168         0.455765416
     0.725978171         0.839323168         0.955765416
     0.471536776         0.328027842         0.462241568
     0.471536776         0.328027842         0.962241497
     0.471536786         0.828027851         0.462241568
     0.471536786         0.828027851         0.962241497
     0.971536820         0.328027842         0.462241568
     0.971536820         0.328027842         0.962241497
     0.971536786         0.828027851         0.462241568
     0.971536786         0.828027851         0.962241497
     0.193293246         0.325490211         0.213335494
     0.193293246         0.325490211         0.713335494
     0.193293251         0.825490271         0.213335494
     0.193293251         0.825490271         0.713335494
     0.693293213         0.325490211         0.213335494
     0.693293213         0.325490211         0.713335494
     0.693293235         0.825490271         0.213335494
     0.693293235         0.825490271         0.713335494
     0.442058460         0.333272738         0.209469412
     0.442058460         0.333272738         0.709469447
     0.442058457         0.833272696         0.209469412
     0.442058457         0.833272696         0.709469447
     0.942058438         0.333272738         0.209469412
     0.942058438         0.333272738         0.709469447
     0.942058391         0.833272696         0.209469412
     0.942058391         0.833272696         0.709469447
     0.085880266         0.113997623         0.461088823
     0.085880266         0.113997623         0.961088823
     0.085880262         0.613997645         0.461088823
     0.085880262         0.613997645         0.961088823
     0.585880271         0.113997623         0.461088823
     0.585880271         0.113997623         0.961088823
     0.585880240         0.613997645         0.461088823
     0.585880240         0.613997645         0.961088823
     0.331491628         0.114013641         0.458570359
     0.331491628         0.114013641         0.958570395
     0.331491623         0.614013638         0.458570359
     0.331491623         0.614013638         0.958570395
     0.831491541         0.114013641         0.458570359
     0.831491541         0.114013641         0.958570395
     0.831491591         0.614013638         0.458570359
     0.831491591         0.614013638         0.958570395
     0.078876717         0.054101543         0.207011081
     0.078876717         0.054101543         0.707011117
     0.078876723         0.554101559         0.207011081
     0.078876723         0.554101559         0.707011117
     0.578876734         0.054101543         0.207011081
     0.578876734         0.054101543         0.707011117
     0.578876745         0.554101559         0.207011081
     0.578876745         0.554101559         0.707011117
     0.335948376         0.059363067         0.212717374
     0.335948376         0.059363067         0.712717374
     0.335948392         0.559363101         0.212717374
     0.335948392         0.559363101         0.712717374
     0.835948354         0.059363067         0.212717374
     0.835948354         0.059363067         0.712717374
     0.835948370         0.559363101         0.212717374
     0.835948370         0.559363101         0.712717374
     0.196303156         0.053725844         0.455419763
     0.196303156         0.053725844         0.955419763
     0.196303159         0.553725828         0.455419763
     0.196303159         0.553725828         0.955419763
     0.696303200         0.053725844         0.455419763
     0.696303200         0.053725844         0.955419763
     0.696303203         0.553725828         0.455419763
     0.696303203         0.553725828         0.955419763
     0.444780899         0.058051120         0.460820907
     0.444780899         0.058051120         0.960820907
     0.444780910         0.558051135         0.460820907
     0.444780910         0.558051135         0.960820907
     0.944780942         0.058051120         0.460820907
     0.944780942         0.058051120         0.960820907
     0.944780910         0.558051135         0.460820907
     0.944780910         0.558051135         0.960820907
     0.216973176         0.110004292         0.211513563
     0.216973176         0.110004292         0.711513563
     0.216973172         0.610004314         0.211513563
     0.216973172         0.610004314         0.711513563
     0.716973176         0.110004292         0.211513563
     0.716973176         0.110004292         0.711513563
     0.716973188         0.610004314         0.211513563
     0.716973188         0.610004314         0.711513563
     0.471466209         0.114593469         0.210268751
     0.471466209         0.114593469         0.710268716
     0.471466190         0.614593453         0.210268751
     0.471466190         0.614593453         0.710268716
     0.971466121         0.114593469         0.210268751
     0.971466121         0.114593469         0.710268716
     0.971466168         0.614593453         0.210268751
     0.971466168         0.614593453         0.710268716
